18
Energy: 1.314
C    1.30705289   2.20664557   1.84469416
C    0.47300475   1.03123115   1.35499925
N    1.18222265   0.34514273   0.27819063
H    2.04561040  -0.04486486   0.64528601
C    0.40588688  -0.69295759  -0.39209108
C   -0.21841772  -1.62010555   0.53470333
N   -0.65352796  -2.30224339   1.34211995
H    1.08039796  -1.26936157  -1.04113063
C   -0.65137959  -0.06719900  -1.34067429
O   -1.64760266  -0.64746450  -1.69174578
N   -0.28618308   1.15709022  -1.75690043
H    0.55025057   1.57372883  -1.38064304
H   -0.88617336   1.67217100  -2.37818072
H    0.24724840   0.36112060   2.19788918
H   -0.47916870   1.38946523   0.95319898
H    0.76476993   2.75226014   2.61147423
H    1.53039041   2.88364011   1.02381823
H    2.24620984   1.85729354   2.26807770
