18
Energy: 2.199
C    1.70210632  -0.95766731   1.04864712
C    0.45357217  -0.66403122   1.86944406
N   -0.77209291  -0.73647666   1.07316791
H   -1.56467923  -0.64616750   1.70076385
C   -0.88807763   0.24485081  -0.00768829
C   -0.37173699   1.55562784   0.33787056
N    0.04648031   2.55877268   0.69159509
H   -1.95208655   0.36378429  -0.25651686
C   -0.23114099  -0.27947682  -1.31453912
O    0.19717509   0.44604670  -2.17662524
N   -0.28782453  -1.62003993  -1.38866225
H   -0.56738897  -2.13175572  -0.56615746
H    0.14094026  -2.09215733  -2.16640210
H    0.34928010  -1.41843612   2.65447731
H    0.56975057   0.31710787   2.35394028
H    1.64877369  -1.94667243   0.60043257
H    2.57232533  -0.91822320   1.69858204
H    1.83536949  -0.21877105   0.26194728
