18
Energy: 2.504
C    0.66627403   1.49127583  -2.56983554
C    0.31495144   1.83007485  -1.12511645
N    0.89645312   0.85779004  -0.20807084
H    0.97578542   1.24860038   0.72530979
C    0.19913239  -0.42396043  -0.14798028
C    1.03116730  -1.41108441   0.49915834
N    1.65266899  -2.18734110   1.06491607
H   -0.00571877  -0.75241880  -1.17290156
C   -1.15132661  -0.26816018   0.59339211
O   -2.16117782   0.05265060   0.01316269
N   -1.06484215  -0.37924950   1.93677077
H   -0.25249373  -0.76979245   2.38421200
H   -1.90747853  -0.27659904   2.47981697
H    0.75230592   2.79781643  -0.86976859
H   -0.77672576   1.90677777  -1.01643736
H    1.73519200   1.31526934  -2.65790615
H    0.38875336   2.31902228  -3.21657128
H    0.13576007   0.60613892  -2.91143601
