18
Energy: 1.208
C   -0.00205686  -1.67869997  -2.54988814
C   -0.10564072  -0.16331226  -2.35565729
N   -0.59770519   0.25546867  -1.05900934
H   -1.48490829  -0.19462361  -0.84231021
C    0.30247250   0.06030107   0.05929471
C    1.02368714   1.28635259   0.33709563
N    1.59977306   2.24663189   0.57013693
H    1.05549546  -0.73182376  -0.12095555
C   -0.49261688  -0.39418495   1.30648976
O   -1.57588152  -0.91424416   1.20061390
N    0.14926083  -0.21535161   2.47616636
H    0.99136734   0.33103166   2.54102751
H   -0.33346000  -0.45520951   3.32740062
H    0.87007974   0.30632213  -2.51337603
H   -0.79731299   0.24728549  -3.09607623
H   -0.96836479  -2.14585517  -2.36969552
H    0.72415935  -2.12018120  -1.86931914
H    0.30877260  -1.90242854  -3.56678208
