18
Energy: 0.488
C   -1.07852533   0.08567752   2.88826226
C    0.02448655  -0.68405415   2.16021333
N   -0.22618195  -0.94068725   0.74987031
H   -1.09182188  -1.46361194   0.64669722
C   -0.29106380   0.24019203  -0.10399106
C    0.89864527   1.05176057   0.04017878
N    1.84076681   1.69140312   0.13988753
H   -1.16335561   0.89392602   0.07381009
C   -0.33121169  -0.19669298  -1.59172240
O   -0.99319970   0.37898817  -2.41796326
N    0.45401085  -1.25893315  -1.82781963
H    0.94358246  -1.69662020  -1.06481959
H    0.52113291  -1.63449017  -2.75871110
H    0.96865334  -0.13785737   2.23404294
H    0.15890364  -1.66220559   2.63065931
H   -0.84735572   0.14507297   3.94802860
H   -2.03704379  -0.41856609   2.77189625
H   -1.16637478   1.09966393   2.50410753
