18
Energy: 1.41
C    0.02351797  -0.33523927  -3.44720897
C    0.05711304  -0.94538907  -2.05500239
N   -0.02430684   0.10251541  -1.05764266
H   -0.83194176   0.70142928  -1.21813510
C   -0.06396824  -0.36600789   0.31001780
C    1.27883396  -0.54130749   0.82169666
N    2.33384184  -0.68028150   1.24135725
H   -0.59014776  -1.34191846   0.41507829
C   -0.86533274   0.63473352   1.17749265
O   -1.72362979   1.32901407   0.69168322
N   -0.56935913   0.60687195   2.48959764
H    0.22323449   0.10037834   2.84615725
H   -1.04103083   1.25538335   3.09956950
H   -0.76079850  -1.68344429  -1.95014352
H    1.00501721  -1.47385920  -1.90446788
H   -0.92560036   0.16806276  -3.61853005
H    0.14850921  -1.10939340  -4.19946737
H    0.82437277   0.39150108  -3.55005072
