18
Energy: 0.852
C   -3.14464800  -1.34255104  -0.00734754
C   -1.95218536  -0.73949809   0.71894020
N   -1.03062040  -0.15565358  -0.24520575
H   -1.52544758   0.52801527  -0.81306716
C    0.12757439   0.48602160   0.36168957
C    0.91026100  -0.47867212   1.10702105
N    1.54122419  -1.24024601   1.68000721
H   -0.12196665   1.31606970   1.04987063
C    1.06203056   1.03898645  -0.74276052
O    1.63003342   2.09713997  -0.64508770
N    1.15485499   0.20262335  -1.78891608
H    0.62662471  -0.65397257  -1.79602824
H    1.74449145   0.44172372  -2.56834804
H   -2.30110234   0.00185850   1.45830135
H   -1.40941667  -1.52098998   1.25910165
H   -3.70759126  -0.57020224  -0.52795633
H   -3.80452702  -1.83181207   0.70335605
H   -2.80651176  -2.07537530  -0.73500382
