18
Energy: 0.484
C    2.58002819  -0.12023393   0.67681407
C    2.14862152  -0.31542283  -0.77145719
N    0.75023184  -0.71049392  -0.86361184
H    0.55239151  -1.05190707  -1.79943354
C   -0.18614920   0.35529514  -0.51654523
C   -1.42711311   0.18724549  -1.23659117
N   -2.39394879   0.01806385  -1.82263096
H    0.20068774   1.36473963  -0.74203022
C   -0.54635315   0.31553731   0.99310940
O   -0.80428951   1.31150918   1.62222688
N   -0.56942272  -0.93751153   1.47051783
H   -0.24378745  -1.68691948   0.88112546
H   -0.76638143  -1.10023743   2.44329664
H    2.34987990   0.60980279  -1.33755868
H    2.73700540  -1.11998125  -1.21938304
H    3.63788128   0.12675416   0.71089373
H    2.41609315  -1.03181961   1.24554491
H    2.02451731   0.68790333   1.14613012
