18
Energy: 1.789
C   -2.27019102  -0.32773179  -1.77677283
C   -0.89485478  -0.98078609  -1.92271636
N   -0.16542640  -1.16623693  -0.68318825
H   -0.77012331  -1.50702208   0.05974811
C    0.64239397  -0.07550379  -0.18887728
C    0.09995184   1.26514857  -0.34194403
N   -0.30675417   2.32915773  -0.45232908
H    1.61901240  -0.09247449  -0.70184028
C    0.86631300  -0.25440156   1.33171524
O    0.17940565  -0.98408007   1.99989675
N    1.87934973   0.48672982   1.82263544
H    2.38001993   1.15537540   1.26432491
H    2.04639377   0.47179922   2.81583240
H   -1.02010841  -1.97794419  -2.35904098
H   -0.27055185  -0.39359098  -2.60224188
H   -2.88919964  -0.91013970  -1.09660709
H   -2.76484112  -0.28605100  -2.74381272
H   -2.18655434   0.68453690  -1.38939138
