18
Energy: 0.0
C    0.08298583  -0.90385819  -2.85779008
C   -0.53666331   0.35600700  -2.25421231
N    0.00285941   0.75240782  -0.96365323
H    1.00854032   0.88489140  -1.03978743
C   -0.28829440  -0.15116327   0.14508142
C    0.73867181  -1.16035235   0.30482577
N    1.61503141  -1.89311815   0.35979585
H   -1.24987777  -0.65045903  -0.02914375
C   -0.44207408   0.61691738   1.48843668
O   -0.63292639   0.04523359   2.53271654
N   -0.35040674   1.94705038   1.34004177
H   -0.26436162   2.32667678   0.41002355
H   -0.47685261   2.54702390   2.13719664
H   -0.37689040   1.20119782  -2.93032321
H   -1.61567581   0.22206677  -2.13230224
H   -0.35637772  -1.10454280  -3.83125587
H   -0.08506288  -1.76755535  -2.21780767
H    1.15697163  -0.77688461  -2.98158444
