18
Energy: 2.563
C   -2.22526413   2.47583954   0.83032936
C   -0.82567274   1.88292550   0.88929275
N   -0.73774464   0.75182432  -0.01965692
H   -1.46399197   0.07486521   0.19666351
C    0.56920370   0.11132344  -0.06032267
C    0.86282401  -0.61055228   1.16280109
N    0.97089657  -1.20741594   2.13426632
H    1.32845279   0.88351837  -0.23238744
C    0.61757482  -0.86703480  -1.25910985
O    1.24695997  -0.63633707  -2.25807554
N   -0.13569124  -1.97265419  -1.08298515
H   -0.54778023  -2.20913957  -0.19712946
H   -0.14678926  -2.66482203  -1.81464093
H   -0.09501842   2.62607175   0.55530300
H   -0.57986364   1.60715818   1.92895257
H   -2.27567808   3.37362300   1.43993754
H   -2.95968000   1.76395931   1.20163314
H   -2.47553090   2.72988920  -0.19598339
