18
Energy: 2.069
C   -0.51533412  -2.67492228  -1.06412974
C   -1.55934712  -1.71420186  -0.51037030
N   -1.09286004  -0.33372320  -0.53407940
H   -1.88928107   0.28452319  -0.40841472
C   -0.10167572  -0.01007446   0.48757913
C    1.22378768  -0.46334677   0.11768521
N    2.29130759  -0.76094971  -0.16404010
H   -0.34297078  -0.42842934   1.48307055
C    0.01091792   1.52688416   0.62640572
O   -0.02198099   2.09122611   1.69038829
N    0.13174031   2.13709310  -0.56531241
H    0.16431790   1.60163726  -1.41593132
H    0.23267813   3.13790631  -0.60081056
H   -2.45082584  -1.75246070  -1.14145969
H   -1.84775598  -2.03045634   0.50694339
H   -0.17316892  -2.33114642  -2.03650422
H   -0.95189221  -3.66428413  -1.17356072
H    0.34384278  -2.74923094  -0.40328738
