18
Energy: 0.705
C    2.92090080   0.56807213  -1.29169655
C    1.70349607   0.52215463  -0.38169586
N    0.93885767  -0.68748238  -0.65666703
H    0.68756536  -0.69893027  -1.64346475
C   -0.28931917  -0.80324358   0.10814603
C   -0.07679465  -0.61197927   1.52264527
N    0.03104583  -0.43496713   2.64799006
H   -0.68051889  -1.82324829  -0.03745461
C   -1.39961578   0.16402407  -0.40687067
O   -1.36049066   0.59836371  -1.53211483
N   -2.39290049   0.41328737   0.46599505
H   -2.35404255   0.10604232   1.42275468
H   -3.13380496   1.03811688   0.18955627
H    2.02225767   0.48050484   0.66505447
H    1.10288385   1.43609532  -0.52040843
H    2.61341616   0.65236320  -2.33176153
H    3.50582476  -0.34010295  -1.17386977
H    3.54178035   1.42418218  -1.04247176
