18
Energy: 0.162
C   -1.23225161  -0.72646225   1.77442589
C   -1.44237384  -1.45218137   0.44407988
N   -0.28616440  -1.49849518  -0.43640913
H    0.47661778  -1.98992689   0.02756426
C    0.24148197  -0.21255502  -0.86500923
C   -0.77977387   0.77274920  -1.11692709
N   -1.54844524   1.60099333  -1.29841895
H    0.78486808  -0.37819390  -1.81178083
C    1.30252725   0.34570239   0.13137918
O    1.89210191  -0.39750276   0.87715079
N    1.53287876   1.66815041   0.04437526
H    0.97780512   2.27253053  -0.53695296
H    2.21273544   2.08227556   0.66232666
H   -1.71632510  -2.49279523   0.63489013
H   -2.26261590  -0.98259794  -0.10801020
H   -2.10563527  -0.85564151   2.40820100
H   -1.08229593   0.34074096   1.61624956
H   -0.36139671  -1.12584154   2.29091253
