18
Energy: 0.798
C    2.85709922   1.87814927   0.21964215
C    1.58971823   1.47457599  -0.51924567
N    0.81268533   0.55581385   0.30227324
H    1.39172855  -0.24549295   0.54575120
C   -0.42009786   0.08768674  -0.32106416
C   -0.15580324  -0.95203090  -1.29670059
N    0.18208777  -1.76918474  -2.02172256
H   -0.90752239   0.93132023  -0.82835789
C   -1.43654712  -0.42704751   0.73277445
O   -2.43892706  -1.02219330   0.42593871
N   -1.07982137  -0.11288219   1.98829563
H   -0.24779041   0.43572394   2.13833931
H   -1.68326055  -0.36207878   2.75336402
H    0.96776869   2.35781028  -0.69769934
H    1.85286173   1.03954021  -1.49631300
H    3.40780605   2.61252328  -0.36116649
H    3.49780265   1.01349388   0.37943814
H    2.60800041   2.30965998   1.18579604
