18
Energy: 1.575
C    0.91469557  -2.20627942  -1.51285404
C   -0.23739388  -1.20816772  -1.42382241
N   -0.84998654  -1.09561037  -0.10213972
H   -0.85180325  -2.00498579   0.34882146
C   -0.29281899  -0.08332672   0.78615488
C    1.14452301  -0.16533101   0.97616689
N    2.27392421  -0.29281776   1.09876670
H   -0.75975094  -0.20435677   1.77489937
C   -0.68845976   1.34207095   0.31409196
O   -0.05659238   2.32838149   0.59829315
N   -1.83434272   1.34108283  -0.38803146
H   -2.27776161   0.46487778  -0.60964648
H   -2.19427040   2.20668893  -0.75225639
H    0.10508720  -0.21650774  -1.72919093
H   -1.03132144  -1.52125424  -2.11296485
H    0.57892845  -3.19826970  -1.21387927
H    1.74064218  -1.90869741  -0.87242229
H    1.27529524  -2.26082933  -2.53663545
