18
Energy: 1.06
C   -2.28755906  -0.93177058  -2.37393742
C   -1.04228251  -0.21027315  -1.88177236
N   -1.10847337  -0.06212330  -0.43630036
H   -1.21282356  -0.98008107  -0.01001030
C    0.04181911   0.59766173   0.14238340
C   -0.26157456   1.07660227   1.47591175
N   -0.45013835   1.43701397   2.54425779
H    0.31013793   1.46250968  -0.47993074
C    1.28435733  -0.33049368   0.27017349
O    1.22860515  -1.50396555  -0.00071553
N    2.40161363   0.30059788   0.68584876
H    2.38197866   1.24613297   1.02635740
H    3.22736147  -0.24984507   0.86217415
H   -0.14422838  -0.75944958  -2.20579631
H   -1.00333731   0.79611836  -2.31372430
H   -2.31383557  -1.94790889  -1.98743370
H   -2.29103197  -0.97343128  -3.45982798
H   -3.17768205  -0.40817083  -2.03566267
