18
Energy: 2.607
C   -3.16263532  -0.43539484  -0.84318106
C   -1.88052467  -0.70569732  -0.06836825
N   -1.09269162   0.51712643   0.00432885
H   -1.64648770   1.25518195   0.42379950
C    0.21452743   0.42871580   0.65178298
C    0.55017507  -0.90112371   1.11348598
N    0.81376024  -1.95839429   1.45978521
H    0.29956522   1.09770632   1.51896033
C    1.35425693   0.83669395  -0.33385219
O    2.45332932   1.14368157   0.05461664
N    0.96404689   0.77682868  -1.61420965
H   -0.01224818   0.61041749  -1.80561767
H    1.59746030   1.04860591  -2.34634602
H   -2.12903060  -1.10861546   0.92641243
H   -1.28218094  -1.45896857  -0.58962223
H   -3.78133873   0.28970479  -0.31842853
H   -3.72916148  -1.35533976  -0.95448507
H   -2.93442864  -0.04274821  -1.83097727
