18
Energy: 0.126
C   -2.75962301  -1.24330673  -0.51031055
C   -1.79948961  -1.00515165   0.65567176
N   -1.06154249   0.24762243   0.60130921
H   -1.70597064   1.02104557   0.46174199
C   -0.00867673   0.27854307  -0.40725065
C    0.44158147   1.63576069  -0.61451849
N    0.78183741   2.71701757  -0.76145884
H   -0.30209290  -0.12786199  -1.39062580
C    1.22173691  -0.53087600   0.08217945
O    1.92096976  -1.16219340  -0.66997692
N    1.40698617  -0.41704609   1.40605253
H    0.73162016   0.08680774   1.95739800
H    2.17154348  -0.89772273   1.84899144
H   -2.36514012  -0.99175126   1.59216913
H   -1.07023011  -1.81796605   0.70910540
H   -3.47320465  -0.42437785  -0.58831020
H   -3.31004597  -2.16642449  -0.35168595
H   -2.22350662  -1.32834534  -1.45307190
