18
Energy: 2.148
C    2.98193312   0.30008360   0.15791906
C    2.01566631  -0.70123882   0.78188435
N    0.74198013  -0.07299301   1.08920866
H    0.15458973  -0.68675419   1.64910759
C   -0.03884151   0.41339168  -0.03046424
C    0.06871963  -0.37514450  -1.24686037
N    0.15783108  -1.00552060  -2.19735591
H    0.26213335   1.44600065  -0.26806431
C   -1.53901152   0.39826698   0.34425069
O   -1.95847144  -0.22857065   1.28376061
N   -2.31321394   1.13177122  -0.47957967
H   -1.95411867   1.57592484  -1.30615669
H   -3.31009568   1.12203933  -0.33592102
H    1.91386527  -1.57373124   0.11501214
H    2.42136462  -1.04932179   1.73475761
H    3.97493063  -0.13641593   0.09541612
H    3.02951317   1.19769978   0.76921254
H    2.66697102   0.57140419  -0.84746136
