18
Energy: 2.247
C    0.47268892  -2.74762107   0.92063870
C    0.68516218  -2.17572731  -0.47755660
N    0.93652502  -0.73740872  -0.42202672
H    1.61136289  -0.47192636  -1.13170810
C   -0.23790419   0.10875562  -0.58564827
C   -1.23235955  -0.11200954   0.44215979
N   -2.03506712  -0.24140263   1.24600789
H   -0.74695962  -0.01422937  -1.56090209
C    0.17709098   1.59598523  -0.44372735
O   -0.26099581   2.46552627  -1.15324571
N    1.05871001   1.77689146   0.55238793
H    1.39317948   0.98546085   1.07649710
H    1.40063716   2.70112496   0.75541072
H    1.56125808  -2.65334587  -0.92308951
H   -0.18381360  -2.40976469  -1.11056278
H    0.35578969  -3.82642118   0.86117256
H   -0.41458010  -2.32722372   1.38381483
H    1.33232415  -2.52179266   1.54632138
