18
Energy: 1.539
C   -1.31497866   0.46652688  -2.68569411
C   -0.69055737  -0.78329856  -2.07417978
N    0.30413870  -0.42646809  -1.06772922
H    0.94203226  -1.20406705  -0.92181382
C   -0.24537544  -0.01675851   0.22220356
C   -0.51016421  -1.16654644   1.06349240
N   -0.66231402  -2.14566754   1.63445864
H   -1.18544894   0.52575472   0.06763896
C    0.69681790   0.96780698   0.96539118
O    0.48952524   1.32533619   2.09808324
N    1.72339594   1.37310746   0.20229058
H    1.77426591   1.05422278  -0.75274917
H    2.38204472   2.04073772   0.56524534
H   -1.47771019  -1.43572540  -1.66675537
H   -0.16860353  -1.33801070  -2.85725346
H   -1.89701117   1.02225591  -1.95468998
H   -1.97615125   0.18383837  -3.50008071
H   -0.53702936   1.11838429  -3.07465725
