18
Energy: 1.79
C    1.91203788   1.58330245  -1.83460133
C    2.05390321   0.58119236  -0.69304972
N    0.99611351  -0.41931582  -0.74018613
H    1.27081727  -1.23284045  -0.19674487
C   -0.28825108   0.04256078  -0.25416234
C   -1.35700087  -0.79302957  -0.76164854
N   -2.22503588  -1.44975061  -1.11145278
H   -0.46454507   1.06696921  -0.60427987
C   -0.39056790   0.02438254   1.29768910
O    0.50737010  -0.39218104   1.98624083
N   -1.54542026   0.52961125   1.77871763
H   -2.32394648   0.73687403   1.17724319
H   -1.71425332   0.48070490   2.77122558
H    2.99615707   0.04327948  -0.81254743
H    2.08713294   1.10979332   0.27205579
H    1.80469823   1.05145868  -2.77624057
H    2.79682953   2.21245640  -1.88246800
H    1.04694329   2.22977024  -1.70188460
