18
Energy: 2.064
C    0.01010335   0.81853940  -2.77399774
C   -0.88727549   0.18066076  -1.71737173
N   -0.20972644  -0.94486409  -1.07722326
H   -0.88261276  -1.67652305  -0.86690114
C    0.46860714  -0.63512508   0.16710693
C    1.30845713   0.53488054   0.10244563
N    1.96499245   1.47158271   0.14178703
H    1.11522055  -1.49214999   0.41802730
C   -0.53746639  -0.49047509   1.35325501
O   -1.65193254  -0.94509357   1.26963264
N   -0.04476418   0.11027930   2.45185655
H    0.85691819   0.55546596   2.45953296
H   -0.65187837   0.23756264   3.24617004
H   -1.20192062   0.93935879  -0.98544786
H   -1.78712754  -0.20146235  -2.20347703
H    0.89808643   1.25253171  -2.32382654
H   -0.53359808   1.60250655  -3.29467461
H    0.32000854   0.06501116  -3.49286772
