18
Energy: 1.813
C   -2.11738294   2.43732777   0.90117078
C   -0.79015318   1.90622677   0.38171682
N   -0.61918198   0.52747458   0.81192027
H   -1.42460603  -0.02828857   0.53679978
C    0.61169598  -0.10099028   0.34878606
C    0.84355907  -1.33033369   1.07156801
N    1.00618780  -2.33719140   1.58972177
H    1.44097186   0.59066459   0.54460514
C    0.55402860  -0.36783454  -1.17725128
O    0.91847235   0.45469258  -1.98256630
N   -0.06141516  -1.52244793  -1.51344273
H   -0.23216774  -2.24692750  -0.83611796
H   -0.13833087  -1.75480480  -2.49104994
H   -0.74464411   2.01660595  -0.71264347
H    0.03389780   2.48330770   0.81234106
H   -2.94947618   1.90092870   0.44926636
H   -2.21536610   3.49208504   0.66016429
H   -2.17046379   2.31424478   1.97964494
