18
Energy: 1.346
C    2.38367934  -1.22902555  -0.52934009
C    1.39263863  -0.84861434  -1.63027601
N    0.01520191  -0.68809047  -1.20703945
H   -0.31528924  -1.52835669  -0.74346854
C   -0.28850917   0.49529196  -0.41851709
C   -1.71370121   0.75198505  -0.46936257
N   -2.84530988   0.91475017  -0.44737524
H    0.24130176   1.35046912  -0.85513368
C    0.11135417   0.39963877   1.07868802
O    0.98918875   1.06854145   1.56567037
N   -0.57138913  -0.55216671   1.75292907
H   -1.41412983  -0.95586172   1.37925026
H   -0.40159843  -0.64811120   2.74164360
H    1.70444767   0.08574510  -2.10413446
H    1.38430384  -1.62851275  -2.39795200
H    2.46942172  -0.43832794   0.21123885
H    3.36579797  -1.39967615  -0.96224132
H    2.06490499  -2.14297070  -0.02969127
