18
Energy: 0.247
C    0.43265861  -0.89581537  -3.19739173
C    0.81719468  -0.15563155  -1.92549466
N   -0.34918165  -0.00077090  -1.06993574
H   -1.08007177   0.49510411  -1.57363862
C   -0.04718741   0.67919197   0.18231859
C   -1.26558585   1.12738508   0.81675914
N   -2.24403902   1.46963128   1.29827694
H    0.61814723   1.55521441   0.06599533
C    0.63827116  -0.30120260   1.17170626
O    1.47510725   0.05547804   1.96233219
N    0.16831235  -1.55124723   1.04453424
H   -0.48887949  -1.75619832   0.30924113
H    0.53168426  -2.28649608   1.62680710
H    1.56136082  -0.73194888  -1.36710458
H    1.27178254   0.81628036  -2.18249564
H    1.31304266  -1.06416253  -3.81114097
H   -0.28606620  -0.31714409  -3.77387676
H   -0.01447986  -1.85577385  -2.95309815
