18
Energy: 0.593
C   -1.90416152  -1.96603250   0.47764104
C   -0.98295711  -2.01339409  -0.74340284
N   -0.37499555  -0.74982371  -1.11407997
H   -1.09730207  -0.06297937  -1.32089661
C    0.52758734  -0.18282776  -0.13347965
C    1.61581914   0.51275768  -0.79702635
N    2.47246766   1.09180931  -1.28447673
H    0.96421955  -0.97919998   0.48352208
C   -0.16026744   0.85922697   0.79074817
O   -1.29413691   1.22188775   0.60070112
N    0.61653680   1.29340392   1.80451293
H    1.59753632   1.07857190   1.84967447
H    0.26782288   2.03473390   2.39174086
H   -0.17594407  -2.73487503  -0.57657175
H   -1.55200005  -2.34559025  -1.61529070
H   -2.66327669  -1.19819549   0.34535248
H   -1.34620692  -1.73779945   1.38438217
H   -2.39548165  -2.92653141   0.61045559
