18
Energy: 1.791
C   -1.71748993   1.67941885   2.47769501
C   -0.51461502   0.90864540   1.95433928
N   -0.58782364   0.82835881   0.50743856
H   -1.45272799   0.38973393   0.20158664
C    0.53263080   0.19678646  -0.15156000
C    0.96073614  -1.05525826   0.45606730
N    1.26087185  -2.04257645   0.95012557
H    1.38831266   0.88966093  -0.15260923
C    0.14281719  -0.15630947  -1.60498934
O   -1.00424989  -0.24408359  -1.96050983
N    1.20063296  -0.37426574  -2.41240090
H    2.14758154  -0.37577636  -2.07709123
H    1.02734337  -0.67158440  -3.35902203
H    0.40741646   1.44404174   2.20740503
H   -0.47016595  -0.08244016   2.43698590
H   -2.63658214   1.13994883   2.26097184
H   -1.76874420   2.65431498   2.00084569
H   -1.63785901   1.81311206   3.55307520
