18
Energy: 1.397
C   -0.86100187  -2.70369698  -0.93104231
C    0.51715241  -2.06142823  -1.04749773
N    0.69971448  -1.04281064  -0.03297356
H    1.68082336  -0.79438220   0.07339652
C   -0.05122434   0.17661318  -0.24349536
C   -1.29686328   0.15321715   0.49490701
N   -2.28157433   0.16570445   1.07697457
H   -0.29898915   0.34085663  -1.31425855
C    0.80150129   1.39673783   0.18376818
O    2.00423773   1.32462474   0.24346891
N    0.09899644   2.52146780   0.41112688
H   -0.90527169   2.51815548   0.46850491
H    0.59561529   3.33997859   0.72499501
H    1.28360968  -2.82078292  -0.87979224
H    0.65094752  -1.65965640  -2.06919378
H   -0.94699536  -3.53108753  -1.63056135
H   -1.64919337  -1.98551073  -1.14671591
H   -1.00738397  -3.07615888   0.07901636
