20
Energy: 2.323
C   -1.07972858  -3.33334672   0.87762658
H   -1.86131834  -4.08952659   0.89092027
H   -0.15958917  -3.79632639   0.53260425
H   -0.92523152  -2.97367454   1.89194866
C   -1.47379776  -2.18085297  -0.04032244
C   -0.46691027  -1.07757747  -0.03425053
C    0.88145835  -1.07634916   0.20498036
C    1.34261749   0.24950273   0.05936164
C    0.26251987   1.02586625  -0.26729315
N   -0.83062106   0.20897005  -0.31471767
H   -1.76388024   0.50711324  -0.54505371
C    0.15688936   2.49653736  -0.51966155
H    0.10722187   2.70662477  -1.59515001
H   -0.77220508   2.87896691  -0.05908126
O    1.26760136   3.21746916  -0.04810920
H    1.48422470   2.89845571   0.83542061
H    2.35523977   0.58362840   0.17144145
H    1.48654277  -1.92305788   0.45917076
H   -2.44188331  -1.77847932   0.27418769
H   -1.59587095  -2.56115644  -1.06109331
