20
Energy: 1.584
C    2.66737996  -1.16925617  -1.70967434
H    2.42096383  -0.47192818  -2.50658889
H    3.66421559  -1.56500967  -1.88962551
H    1.95770095  -1.99323410  -1.74525760
C    2.60896829  -0.46112645  -0.35308153
C    1.25554592   0.10411322  -0.08707683
C    0.77285907   1.37891104  -0.21737236
C   -0.59359030   1.35820276   0.13296486
C   -0.91067786   0.06717970   0.46586602
N    0.21881888  -0.68493798   0.32126634
H    0.28495872  -1.67101143   0.51103044
C   -2.20883376  -0.53764300   0.89822045
H   -2.32562416  -1.52818991   0.42185111
H   -2.22886061  -0.68549481   1.98503230
O   -3.31855311   0.27582814   0.61061229
H   -3.22442818   0.61228297  -0.28787632
H   -1.25753729   2.19988550   0.15003943
H    1.33293414   2.23943912  -0.52544022
H    3.33766126   0.35035259  -0.33769513
H    2.87460985  -1.17007757   0.43656097
