20
Energy: 1.657
C    0.55360862   2.54590570  -2.16793179
H    1.54857994   2.14940008  -1.97708629
H    0.57227456   3.08600602  -3.11169251
H    0.30649408   3.24390963  -1.37196305
C   -0.47945231   1.41664789  -2.21720457
C   -0.53284472   0.66786488  -0.92948195
C   -1.39415182   0.76295670   0.13025949
C   -0.96663799  -0.15366194   1.11434437
C    0.15220610  -0.78079612   0.63125995
N    0.40358568  -0.27260979  -0.60955745
H    1.16782453  -0.54980535  -1.20257337
C    1.00887545  -1.86072874   1.21664876
H    0.81387865  -2.81324330   0.68817560
H    2.06891876  -1.61736669   1.08292357
O    0.82918021  -2.03187448   2.59879103
H   -0.11595189  -2.09140354   2.77577349
H   -1.43317414  -0.30953382   2.06770212
H   -2.24366508   1.41293826   0.20025180
H   -0.22829137   0.73175563  -3.03245411
H   -1.46501115   1.83750758  -2.42077214
