20
Energy: 2.344
C   -1.79163878  -1.48574215  -2.74862156
H   -2.72095869  -1.53043117  -3.31179764
H   -0.97664048  -1.28977672  -3.44043614
H   -1.62389974  -2.45213464  -2.28035922
C   -1.86670904  -0.38976541  -1.69319811
C   -0.61259407  -0.28291781  -0.88852256
C    0.56583755  -0.98158223  -0.93169132
C    1.41509688  -0.45017409   0.05985144
C    0.73752742   0.56331670   0.68615576
N   -0.49847003   0.64545662   0.10470149
H   -1.20742707   1.31834097   0.34714078
C    1.12468388   1.43544766   1.83238553
H    2.15740939   1.77598066   1.72544527
H    0.46587974   2.31882946   1.86135832
O    1.08457035   0.76724583   3.08178158
H    0.27011531   0.25489138   3.13416747
H    2.41030603  -0.77596237   0.28723181
H    0.80735191  -1.78610794  -1.59645556
H   -2.71016689  -0.58944283  -1.02231618
H   -2.06325478   0.57139191  -2.18177491
