20
Energy: 2.345
C    0.05364487  -0.12742509   3.59305264
H    0.82686593  -0.88597226   3.50289157
H    0.53063010   0.84579033   3.67349131
H   -0.50964636  -0.31326538   4.50462752
C   -0.87199546  -0.16645454   2.38368971
C   -0.14706964   0.07458906   1.09990733
C    1.16649130   0.35700682   0.82887444
C    1.29499594   0.49661013  -0.56784914
C    0.05629291   0.29897402  -1.11983130
N   -0.80820449   0.03270814  -0.09274798
H   -1.79646153  -0.13068200  -0.19685196
C   -0.38833391   0.27662931  -2.54301036
H   -1.47490639   0.45594467  -2.59328463
H    0.11971757   1.05592337  -3.11555371
O   -0.07323075  -0.93547324  -3.20805319
H   -0.30266889  -1.67407065  -2.63327644
H    2.19534329   0.71739019  -1.10534705
H    1.95863707   0.45704146   1.54300621
H   -1.65565867   0.59049443   2.50261375
H   -1.36937050  -1.14199689   2.33875686
