20
Energy: 1.668
C   -1.74938459  -0.37905416  -2.88620983
H   -1.91912271  -0.26762455  -3.95459940
H   -2.13666461  -1.34470921  -2.57089531
H   -2.30537699   0.39785239  -2.36539801
C   -0.25447462  -0.28248885  -2.56826532
C    0.00513558  -0.44831451  -1.10974614
C    0.40176016  -1.54411987  -0.38724633
C    0.44678056  -1.16851460   0.96941851
C    0.07123296   0.14863295   1.04544241
N   -0.18523835   0.57379734  -0.22843461
H   -0.50009338   1.49727235  -0.47795946
C   -0.01222427   1.07225636   2.21385690
H   -0.59258730   1.96690142   1.93427798
H   -0.51017399   0.58545706   3.05618509
O    1.25673609   1.46030500   2.71119714
H    1.82520791   1.69031467   1.96787040
H    0.72386567  -1.79150193   1.79610958
H    0.63709099  -2.51116596  -0.78566476
H    0.12495919   0.68703541  -2.90426615
H    0.28108058  -1.06179140  -3.11203507
