20
Energy: 0.0
C    0.34538685   2.27083261   2.40143478
H    0.32845082   3.28379854   2.79684299
H   -0.61141318   1.80002981   2.61685898
H    1.12413203   1.71046515   2.91293006
C    0.61279583   2.28861139   0.89382578
C    0.65414124   0.90900987   0.33065112
C    1.71635730   0.10127713   0.01326560
C    1.19724809  -1.12293193  -0.45293769
C   -0.17034040  -1.03600404  -0.39559272
N   -0.48296371   0.20351515   0.08179414
H   -1.42222205   0.54662780   0.19775946
C   -1.23438906  -2.00169712  -0.79631909
H   -0.77595625  -2.97417032  -1.01964135
H   -1.96333336  -2.13689427   0.00921507
O   -1.99610844  -1.54356895  -1.90201496
H   -1.39524613  -1.37936081  -2.63732188
H    1.76504799  -1.97081067  -0.78265973
H    2.75364480   0.35841648   0.09892116
H    1.56946868   2.77645797   0.70204571
H   -0.16954587   2.86779457   0.39482006
