20
Energy: 1.703
C   -0.06604979  -0.58487293  -3.24576319
H   -0.17636850  -1.11806018  -4.18712274
H   -0.41434598   0.43609407  -3.38150349
H    0.99089184  -0.55416908  -2.98912799
C   -0.87291223  -1.27432861  -2.14174265
C   -0.75358524  -0.55222962  -0.84307278
C   -1.60162434   0.32935039  -0.22424393
C   -0.98746908   0.74438792   0.97370179
C    0.22471964   0.10754459   1.05695506
N    0.35684982  -0.66756214  -0.06024086
H    1.14118080  -1.26696851  -0.25861756
C    1.30084316   0.20131727   2.08764398
H    0.94017293  -0.13713145   3.06411135
H    2.14623735  -0.44152603   1.79059922
O    1.75089725   1.52449498   2.30208283
H    1.85715149   1.95781241   1.44779298
H   -1.38667545   1.43124777   1.69297847
H   -2.56174074   0.64110220  -0.58518108
H   -0.52124446  -2.30375749  -2.02607434
H   -1.92432125  -1.30698425  -2.42994980
