20
Energy: 0.7
C    2.45455896   2.59272108   0.00876478
H    1.92695761   3.06634432  -0.81509160
H    2.93358165   3.36702207   0.60360844
H    3.22500504   1.94424882  -0.40029719
C    1.48639005   1.78993172   0.86854487
C    0.80111706   0.70639182   0.10172685
C    0.88170282   0.32476794  -1.21283515
C    0.00365628  -0.76328419  -1.39619514
C   -0.58409158  -1.02588159  -0.18628753
N   -0.09055600  -0.12352091   0.71198341
H   -0.37267748  -0.07179824   1.67685515
C   -1.61467989  -2.02873119   0.21000226
H   -1.76232063  -2.74062123  -0.61294252
H   -1.29867826  -2.58394552   1.09899105
O   -2.84669906  -1.42792437   0.57604171
H   -3.15745089  -0.89710956  -0.16582132
H   -0.16519831  -1.29504376  -2.31202457
H    1.49582125   0.76724678  -1.97092085
H    0.73252130   2.46334854   1.29169739
H    2.03060085   1.34543478   1.70928704
