20
Energy: 2.256
C   -2.58559467  -2.42621154  -0.82374692
H   -1.96209473  -3.19537160  -0.37541232
H   -3.62507038  -2.73806882  -0.75266611
H   -2.32232308  -2.33555165  -1.87432338
C   -2.38374696  -1.09565896  -0.10970258
C   -0.97038123  -0.61726473  -0.17983186
C    0.15062438  -1.15269152  -0.75456328
C    1.22208973  -0.26514013  -0.51417188
C    0.72704548   0.79148782   0.20248029
N   -0.60426487   0.56313191   0.40365584
H   -1.22859522   1.18200169   0.89341231
C    1.40664915   2.00885090   0.74462109
H    1.20273714   2.88379563   0.11519467
H    1.01587306   2.22378193   1.75593996
O    2.80674015   1.88932716   0.77797269
H    3.02921311   1.02048000   1.13142296
H    2.23402702  -0.39058556  -0.84556719
H    0.21581626  -2.07679830  -1.29224386
H   -2.67782377  -1.19930128   0.94100317
H   -3.04106793  -0.34100672  -0.55618796
