20
Energy: 1.567
C    0.98231041   1.71964098   2.78680931
H    1.67087892   2.19616461   3.48072940
H    0.08315195   2.32658859   2.71638667
H    0.70632539   0.74665151   3.18786265
C    1.62854332   1.57408550   1.40615558
C    0.69759555   0.93765289   0.43141885
C   -0.09674509   1.48435261  -0.54085308
C   -0.81509416   0.43354238  -1.14910884
C   -0.44201486  -0.72979862  -0.52812619
N    0.47946778  -0.41008362   0.42635061
H    0.92327222  -1.06812137   1.04506399
C   -0.86426805  -2.14388759  -0.77240859
H    0.01159398  -2.80904736  -0.66355176
H   -1.61692923  -2.46017506  -0.03975039
O   -1.46494321  -2.33010454  -2.02970949
H   -0.93844900  -1.86558676  -2.69032242
H   -1.53041460   0.52878091  -1.94206703
H   -0.15876867   2.52329421  -0.79743872
H    2.53888112   0.97386782   1.49442927
H    1.90856405   2.55983374   1.03250103
