20
Energy: 1.668
C   -0.13021162   1.20061606  -3.16512294
H   -0.59048157   1.36471998  -4.13663455
H   -0.27769375   2.09185170  -2.55865898
H    0.93822398   1.05722297  -3.30572473
C   -0.74113959  -0.02729463  -2.48390280
C   -0.11345810  -0.28444534  -1.15647672
C    0.85973513  -1.17414526  -0.78045473
C    1.12155037  -0.96859268   0.58810001
C    0.30534424   0.04727246   1.01620655
N   -0.44579828   0.44569915  -0.05464876
H   -1.12238806   1.19152167  -0.04161769
C    0.12068542   0.64555737   2.36997600
H    1.08594970   0.79456719   2.85978103
H   -0.37854792   1.62389522   2.27515666
O   -0.61592203  -0.18405785   3.25223264
H   -1.38351001  -0.53155287   2.78465025
H    1.82725941  -1.50412137   1.19098610
H    1.33315055  -1.89692545  -1.41510203
H   -0.59371527  -0.90265269  -3.11774125
H   -1.81768030   0.12510242  -2.36175865
