20
Energy: 1.675
C    0.00567814  -2.66119899   2.14303342
H   -0.20295871  -3.18115759   3.07511455
H   -0.13157444  -3.35604183   1.31832616
H    1.04597160  -2.34258496   2.15084141
C   -0.92849308  -1.45887778   1.97914104
C   -0.66797289  -0.73450217   0.70258110
C   -1.30796019  -0.78974303  -0.50845805
C   -0.62156060   0.06391811  -1.39436618
C    0.42504917   0.61910382  -0.70287724
N    0.37832343   0.13010418   0.57173273
H    1.03521750   0.35331058   1.30141013
C    1.45003782   1.61686806  -1.13174731
H    2.07864327   1.88688936  -0.26660214
H    2.09971349   1.20372813  -1.91028309
O    0.88727373   2.77992768  -1.70441912
H    0.13833522   3.05898504  -1.16582388
H   -0.86618123   0.25200430  -2.42071179
H   -2.17603278  -1.37555985  -0.73777426
H   -0.79370511  -0.77833032   2.82506878
H   -1.96366710  -1.80273283   1.98377602
