20
Energy: 0.0
C   -1.96986309  -1.63898700  -2.12212303
H   -2.66179106  -1.06174489  -1.51248913
H   -2.42714051  -1.81189421  -3.09358424
H   -1.80759933  -2.59892896  -1.63794691
C   -0.63961513  -0.89739105  -2.28033502
C    0.01330328  -0.66117045  -0.96116792
C    1.01692735  -1.34400171  -0.32244180
C    1.23158737  -0.72077696   0.92293040
C    0.34334489   0.31995399   1.01843041
N   -0.38826481   0.34181456  -0.13325096
H   -1.09674452   1.02561016  -0.34274102
C    0.14176947   1.34500461   2.08332566
H   -0.91433533   1.41616889   2.36266796
H    0.72053073   1.06239681   2.97261390
O    0.49267857   2.65106225   1.65431984
H    1.41287421   2.63954277   1.36834421
H    1.94964362  -1.01117596   1.66461024
H    1.54601169  -2.19421973  -0.70536820
H   -0.81601982   0.05882190  -2.78130195
H    0.03145391  -1.48836837  -2.90525151
