20
Energy: 1.063
C   -1.87141768   2.01531522  -1.50853113
H   -2.46963456   1.75833436  -0.63623218
H   -1.10766382   2.73404396  -1.21732132
H   -2.52523272   2.49448477  -2.23357789
C   -1.23986663   0.77038145  -2.12271424
C   -0.30682709   0.05048969  -1.20052109
C    0.45471917  -1.06775668  -1.43721707
C    1.15801369  -1.36511869  -0.25398197
C    0.81620706  -0.41418054   0.67321847
N   -0.07499932   0.43470620   0.08213402
H   -0.50807383   1.21146466   0.55208961
C    1.21188765  -0.24326901   2.10100443
H    2.03615433  -0.93035876   2.33379339
H    1.54653402   0.78088348   2.29502031
O    0.12738408  -0.44562482   2.99368935
H   -0.22934841  -1.32783712   2.84159664
H    1.84280579  -2.17724519  -0.10727011
H    0.50232203  -1.61505439  -2.35793468
H   -0.69089504   1.05186988  -3.02636736
H   -2.03087821   0.08071799  -2.43378517
