20
Energy: 2.256
C    0.40880420   1.60039869  -3.24194531
H   -0.41989520   2.26654658  -3.01689219
H    1.32437865   2.04545964  -2.86111719
H    0.49300602   1.50508322  -4.32206026
C    0.17878424   0.23439079  -2.60787889
C    0.05909576   0.30660321  -1.12063634
C    0.09063103   1.36177051  -0.24911169
C   -0.07677734   0.84676261   1.05471028
C   -0.20662509  -0.51216546   0.94594566
N   -0.11639998  -0.82816684  -0.37961625
H   -0.18964889  -1.75783230  -0.75784988
C   -0.38798036  -1.56239366   1.99537793
H   -1.44136369  -1.85712509   2.07753211
H    0.19186990  -2.46041202   1.71504724
O   -0.02050779  -1.12566389   3.28031717
H    0.81627231  -0.65177025   3.21271485
H   -0.10933709   1.41728968   1.96186981
H    0.21861544   2.39543032  -0.49910259
H    1.00812293  -0.43218152  -2.87040451
H   -0.73458682  -0.20796200  -3.02153727
