20
Energy: 1.693
C   -1.30710928   0.77007989   2.86893683
H   -0.58684624   1.58101867   2.94385946
H   -2.05221069   1.04256165   2.12427260
H   -1.80546030   0.65778476   3.82888153
C   -0.59824749  -0.53013269   2.47856116
C    0.11184482  -0.39694202   1.17467813
C    1.43458470  -0.17313530   0.89152237
C    1.56538626  -0.09664158  -0.50880282
C    0.31812786  -0.27646185  -1.05004784
N   -0.55632350  -0.44612245  -0.01221773
H   -1.54231185  -0.62637787  -0.11006344
C   -0.14548222  -0.24738484  -2.46710209
H    0.59394835  -0.71464604  -3.12132484
H   -1.09418184  -0.80175847  -2.55715642
O   -0.31085184   1.06651802  -2.97416119
H   -0.77499522   1.59729813  -2.31731930
H    2.47067227   0.07012108  -1.05737568
H    2.22602998  -0.07888514   1.60846292
H   -1.33246963  -1.33900393   2.41923933
H    0.12887239  -0.78990696   3.24885401
