20
Energy: 0.7
C   -3.02195726  -0.63418351   1.78671092
H   -3.67789863  -0.28915363   2.58265137
H   -3.61165668  -0.75859566   0.88221591
H   -2.61336085  -1.60089205   2.06962749
C   -1.89975801   0.36987840   1.55525891
C   -0.96024520  -0.05853545   0.47571649
C   -0.94814513  -1.15838683  -0.34306856
C    0.18233388  -1.05557159  -1.17969377
C    0.82786784   0.10959677  -0.85731396
N    0.12230213   0.70211752   0.15053780
H    0.38899434   1.56297643   0.59893586
C    2.08856674   0.71322210  -1.37803137
H    2.41602679   0.15766261  -2.26682982
H    1.93425072   1.76010082  -1.65853590
O    3.11897184   0.74661004  -0.40339076
H    3.27388101  -0.15316699  -0.09498658
H    0.47734298  -1.75560830  -1.93659959
H   -1.66230171  -1.95682545  -0.35245608
H   -1.33813294   0.50790950   2.48594986
H   -2.33150298   1.34189638   1.29144997
