20
Energy: 1.69
C   -1.08223140   2.82522721   1.19560270
H   -1.16651026   3.69959314   1.83664612
H   -1.36513668   3.10691367   0.18433679
H   -1.78242593   2.07089724   1.54878181
C    0.35106922   2.28601629   1.21092752
C    0.49878815   1.09671956   0.32433907
C    1.00052632   0.98049864  -0.94637846
C    0.87400449  -0.36749722  -1.33460937
C    0.29641346  -1.04483112  -0.29109633
N    0.06365168  -0.13751099   0.70513855
H   -0.33118768  -0.35554846   1.60556721
C   -0.11422461  -2.47288046  -0.16259730
H    0.64705252  -3.13189801  -0.58673495
H   -0.24167865  -2.72512871   0.90300676
O   -1.30316840  -2.77810138  -0.87173963
H   -1.95073020  -2.08385584  -0.70657923
H    1.17277088  -0.79310595  -2.27155534
H    1.41932466   1.77309823  -1.53434328
H    0.62647415   2.01997436   2.23575563
H    1.03350917   3.06521573   0.86928821
