20
Energy: 1.668
C   -0.08075928  -0.79210307   3.30018312
H   -0.96871436  -0.18695614   3.46501105
H    0.05869533  -1.44679313   4.15727905
H    0.77727094  -0.12665020   3.23078797
C   -0.23536685  -1.61418758   2.01744838
C   -0.44405260  -0.73796656   0.82963647
C   -1.59167222  -0.37069693   0.17527346
C   -1.23026819   0.51763573  -0.85623018
C    0.13103804   0.67811019  -0.80435044
N    0.59455419  -0.09938367   0.22043794
H    1.55795344  -0.16628643   0.50607421
C    1.05473629   1.45769304  -1.67840729
H    0.64873465   2.45234519  -1.87866800
H    2.02859768   1.57230035  -1.17456824
O    1.24230696   0.87265223  -2.95557737
H    1.38222535  -0.07449875  -2.84638074
H   -1.89193334   0.98575895  -1.55721597
H   -2.58414445  -0.70344779   0.40677401
H   -1.09237762  -2.28150402   2.11767548
H    0.65774656  -2.22906606   1.87206600
