20
Energy: 1.796
C   -2.13106172   0.12132835   2.41136970
H   -2.43738156   0.24041142   3.44822683
H   -2.94817522   0.43935201   1.76843229
H   -1.94147481  -0.93368747   2.22605278
C   -0.87852131   0.95343284   2.12248002
C   -0.44370645   0.81334927   0.70332396
C   -0.62052502   1.64001994  -0.37660349
C   -0.03433060   1.01383695  -1.49543979
C    0.47697136  -0.18280471  -1.06520572
N    0.21349295  -0.29472765   0.26329186
H    0.52853748  -1.06740737   0.82580977
C    1.18764137  -1.27212128  -1.80224208
H    0.45749769  -1.90872415  -2.33164253
H    1.85276638  -0.82700082  -2.55569559
O    1.92061503  -2.05034489  -0.87356263
H    2.41757630  -2.72007859  -1.35239426
H    0.00427692   1.39925294  -2.49516695
H   -1.10945710   2.59431244  -0.36957399
H   -0.07180070   0.63391293   2.78843731
H   -1.08786629   2.00479762   2.32468465
