20
Energy: 0.005
C   -2.55547777   0.82530753  -1.71389983
H   -2.85655819  -0.21835882  -1.76246595
H   -2.72406719   1.18276699  -0.70027841
H   -3.18285301   1.40014628  -2.39115769
C   -1.08027486   0.96671334  -2.09964809
C   -0.20059281   0.17792962  -1.19066591
C    0.38420763  -1.05219465  -1.35260024
C    1.07529185  -1.35620252  -0.16280267
C    0.90072693  -0.29910813   0.69343263
N    0.12132473   0.62134142   0.05526368
H   -0.18311411   1.48896647   0.46499420
C    1.36443026  -0.08096679   2.09440005
H    2.07902749  -0.86886645   2.36692209
H    1.86048737   0.88969775   2.19574396
O    0.29091928  -0.03864498   3.02098799
H   -0.20155633  -0.86417042   2.95245951
H    1.64316305  -2.24428289   0.03426737
H    0.32722880  -1.66895155  -2.22768803
H   -0.79679075   2.02249039  -2.06295213
H   -0.93807797   0.61348821  -3.12184983
