20
Energy: 2.344
C   -2.89158513  -1.43415118  -1.59522058
H   -2.95076992  -0.62150661  -2.31452218
H   -2.23690426  -2.20408870  -1.99521833
H   -3.88552751  -1.85679176  -1.46749574
C   -2.35969341  -0.92463183  -0.26158688
C   -0.99436363  -0.32980446  -0.37943693
C   -0.15726854  -0.16308619  -1.45189786
C    1.01379204   0.46862698  -0.98672626
C    0.86573788   0.67621450   0.35989250
N   -0.35690683   0.17514062   0.71599841
H   -0.74726738   0.20897024   1.64370474
C    1.79924990   1.25580738   1.36824307
H    2.30528111   2.13518816   0.96283246
H    1.23216273   1.55929670   2.26359939
O    2.84127623   0.36928126   1.74004143
H    2.46585898  -0.50473947   1.89392191
H    1.86759717   0.73956839  -1.57483800
H   -0.35057228  -0.45504675  -2.46426436
H   -2.33230283  -1.75127751   0.45762219
H   -3.04697900  -0.17065761   0.13887533
