20
Energy: 2.324
C   -1.30188179   1.26841485   3.11843858
H   -1.24867108   2.30551070   2.79966412
H   -2.02157268   1.19464131   3.93051809
H   -0.32435492   0.97188780   3.49075435
C   -1.72138502   0.37395308   1.95635607
C   -0.72434982   0.38001294   0.84418221
C    0.16675280   1.33191618   0.42545286
C    0.85586038   0.81370311  -0.69173519
C    0.36629812  -0.44344896  -0.92869009
N   -0.58770332  -0.69675931   0.01484596
H   -1.12821710  -1.54355299   0.07601363
C    0.73727728  -1.45687639  -1.96446646
H    0.73246406  -2.46301999  -1.50713744
H    0.01126227  -1.46047521  -2.78676826
O    1.98205804  -1.20006716  -2.56504855
H    2.61142396  -0.96781542  -1.87273529
H    1.61416232   1.31768223  -1.25792813
H    0.32180131   2.29827588   0.86111383
H   -2.69459208   0.70897990   1.57944496
H   -1.84729574  -0.65300602   2.31329428
