20
Energy: 1.669
C    0.90235096  -3.14546992   0.86750055
H    0.05076343  -2.94447624   1.51424752
H    0.97940719  -4.22057511   0.72302286
H    1.80122310  -2.79625166   1.36944696
C    0.74151907  -2.43437375  -0.47914406
C    0.64638589  -0.95647182  -0.30896346
C    1.58811570   0.02803858  -0.46349544
C    0.98286859   1.25519017  -0.12944712
C   -0.31496597   0.99146088   0.22741728
N   -0.50580126  -0.35700916   0.10416855
H   -1.36166048  -0.84250434   0.31865033
C   -1.42435989   1.90726602   0.62110805
H   -2.20399665   1.33545408   1.15082032
H   -1.05675298   2.69205506   1.28633988
O   -1.99884349   2.59458871  -0.47765223
H   -2.14509310   1.96791055  -1.19489528
H    1.44527549   2.22166510  -0.14894914
H    2.60153991  -0.11289869  -0.78349666
H   -0.15612469  -2.80833631  -0.98061271
H    1.60072218  -2.66063856  -1.11180606
