20
Energy: 0.753
C   -1.24246138  -1.18455970  -3.04468798
H   -1.99640547  -1.59988711  -2.38039000
H   -1.71285656  -0.93466378  -3.99293439
H   -0.48764338  -1.94460928  -3.22528067
C   -0.61149952   0.05770713  -2.42230541
C   -0.01699807  -0.21809619  -1.08016687
C    0.61203462  -1.32956792  -0.57859672
C    0.98583061  -1.04632317   0.75032415
C    0.58646817   0.23618296   1.02457447
N   -0.02271528   0.72285450  -0.09612968
H   -0.43416718   1.63925781  -0.16373349
C    0.68098859   1.05242890   2.26953236
H    1.30940671   0.52659881   3.00054500
H    1.12977507   2.02950487   2.06322695
O   -0.59065864   1.34721159   2.82500809
H   -1.04520460   0.51576661   3.00043485
H    1.49736948  -1.70834187   1.42121081
H    0.78856619  -2.25075827  -1.09668804
H   -1.36984004   0.83937998  -2.31899713
H    0.16310278   0.44118557  -3.09593550
