20
Energy: 2.42
C   -1.14384895  -0.15096585   3.43087972
H   -1.80791506  -0.61482414   4.15663465
H   -0.13077631  -0.18438562   3.82164030
H   -1.43224122   0.89019421   3.30947954
C   -1.22544681  -0.88292281   2.09543716
C   -0.39331763  -0.23351016   1.03847472
C    0.73715358   0.53836192   1.11548343
C    1.11152970   0.88220443  -0.19881378
C    0.20114634   0.31139839  -1.05047720
N   -0.70131497  -0.37114311  -0.28334348
H   -1.49627098  -0.87631210  -0.63956971
C    0.12987023   0.31524295  -2.54162942
H   -0.74528251  -0.27234579  -2.86550233
H    0.02018824   1.33385869  -2.92677229
O    1.30197479  -0.18369058  -3.15580630
H    1.58322732  -0.97767189  -2.68751932
H    1.95285319   1.48016070  -0.48713399
H    1.24792788   0.83417418   2.00958914
H   -2.26641670  -0.91151364   1.75834955
H   -0.90022566  -1.92055839   2.23478053
