20
Energy: 1.665
C    1.07737498   0.32048322  -3.21221701
H    1.03168504   0.54735364  -4.27478866
H    1.56619371   1.14908105  -2.70397820
H    1.68397592  -0.57092760  -3.07269728
C   -0.32954319   0.09359479  -2.65199023
C   -0.29510889  -0.23958082  -1.19952990
C   -0.42598579  -1.43648155  -0.54846210
C   -0.27464830  -1.19246749   0.83337499
C   -0.05526443   0.15108913   0.98982807
N   -0.06645856   0.71637970  -0.25179075
H    0.06151764   1.69634539  -0.44078745
C    0.19953507   0.97378860   2.21494380
H    1.24048821   1.34875941   2.19582485
H   -0.46668957   1.84396397   2.23413734
O   -0.04212001   0.28339198   3.41322490
H    0.40020997  -0.57118479   3.36444352
H   -0.34027642  -1.92949959   1.60994421
H   -0.61457059  -2.38841295  -1.00374540
H   -0.80431992  -0.72875629  -3.18858983
H   -0.93096282   0.99359186  -2.81069323
