20
Energy: 1.783
C    2.71956401   1.57976750  -0.39707401
H    3.54740105   2.22720516  -0.11659176
H    3.05763386   0.89904037  -1.17449927
H    1.92187938   2.19574146  -0.80639926
C    2.22167334   0.78832891   0.81554619
C    1.08703585  -0.10843120   0.45331989
C    1.05355104  -1.45306645   0.18523300
C   -0.27250905  -1.78831694  -0.15642171
C   -1.01066534  -0.63560382  -0.08510282
N   -0.17709283   0.36974207   0.29084392
H   -0.47024862   1.32857869   0.37702505
C   -2.46581224  -0.38130577  -0.31445833
H   -2.81741823  -1.00863510  -1.14564549
H   -3.04431381  -0.65761913   0.58428667
O   -2.64996965   0.99333228  -0.60123280
H   -3.57693623   1.14770443  -0.80548108
H   -0.63710368  -2.76164950  -0.41953401
H    1.88566805  -2.12804790   0.22894213
H    1.90549832   1.48586069   1.59655939
H    3.03764484   0.18275612   1.21262408
