20
Energy: 1.704
C    1.71556872  -0.58931229   2.73409430
H    0.77960808  -0.53111842   3.28438530
H    2.48458466  -0.97986410   3.39648555
H    1.99884328   0.41757742   2.43409945
C    1.55230733  -1.49541668   1.51026980
C    0.49024745  -0.99316763   0.59260376
C   -0.80747205  -1.39777497   0.41396770
C   -1.38596999  -0.56125806  -0.56055246
C   -0.42721441   0.33788368  -0.95345266
N    0.70348655   0.06947526  -0.23435974
H    1.57936971   0.55705580  -0.32963729
C   -0.49811820   1.47298712  -1.91984745
H    0.50389216   1.91877386  -2.03368673
H   -0.83552362   1.12956129  -2.90214120
O   -1.42878987   2.46970279  -1.54043388
H   -1.33407581   2.64006309  -0.59662492
H   -2.38996286  -0.61158353  -0.93191550
H   -1.29130796  -2.20894186   0.92109000
H    1.28490089  -2.50069354   1.83817094
H    2.50495216  -1.55589030   0.97557253
