22
Energy: 1.369
C    0.45575775   1.80355557  -1.28378332
H    0.42887331   2.32930191  -0.33246063
H    1.27304718   2.20639064  -1.87588270
H   -0.47461438   1.99266256  -1.81463482
C    0.66051829   0.30805116  -1.06532771
C    1.96339252   0.05015278  -0.29477330
O    2.37102815  -1.29127883  -0.32589324
H    1.57604570  -1.83607230  -0.22941757
H    2.77212791   0.62391184  -0.75779952
H    1.85886351   0.39891147   0.74430897
H    0.75750872  -0.19005068  -2.03657921
C   -0.56965226  -0.32609635  -0.38337183
C   -0.85253020   0.18342397   1.01517785
C   -1.69522323   1.37480166   1.25245922
N   -2.18808546   0.05161438   1.56193564
H   -2.87508393  -0.28781379   0.89296025
H   -1.49223950   1.99594272   2.11354660
H   -2.10287249   1.90567253   0.40058173
H   -0.07974158  -0.04402725   1.74168668
O   -0.37432417  -1.73408976  -0.34979181
H   -1.02862467  -2.12600875   0.24031207
H   -1.45161500  -0.10590067  -1.01461355
