22
Energy: 2.06
C   -0.28939464   1.90412940  -1.65225315
H    0.74590255   1.80326259  -1.97469815
H   -0.92420478   2.01541477  -2.52869392
H   -0.36404355   2.80124492  -1.04552250
C   -0.72680885   0.69449357  -0.82632973
C   -0.68009720  -0.59570137  -1.65937578
O    0.62471033  -1.00244620  -1.99595110
H    1.02858838  -0.30835810  -2.52934848
H   -1.10695522  -1.42671095  -1.09489688
H   -1.28179607  -0.45074003  -2.56803076
H   -1.76029991   0.84805751  -0.50211750
C    0.14830046   0.57635247   0.43337311
C   -0.28552410  -0.55972937   1.33641512
C    0.26484426  -1.92367462   1.18662974
N    0.64470570  -1.09496578   2.30993969
H    1.58413048  -0.71408276   2.22520780
H   -0.36028719  -2.76833597   1.44155458
H    0.97584747  -2.10893191   0.39137711
H   -1.29663561  -0.45157561   1.71824312
O    0.06462030   1.80684894   1.13199532
H    0.35745794   1.66271203   2.03895674
H    1.19417909   0.40313578   0.12161189
