22
Energy: 2.15
C   -1.75883275  -0.11305563   1.67234780
H   -1.80747721   0.33387778   2.66310020
H   -2.62653216   0.21771541   1.10706479
H   -1.80859284  -1.19656655   1.76761467
C   -0.48012281   0.29945717   0.94167524
C    0.75385734  -0.35974168   1.57479433
O    0.97893659   0.05248607   2.89860669
H    0.21126734  -0.18751541   3.42956612
H    0.64659145  -1.45387406   1.52372231
H    1.65619132  -0.07827255   1.02864541
H   -0.36285527   1.38729666   1.01853834
C   -0.59076534  -0.06870041  -0.55176377
C    0.64716505   0.34764852  -1.32702609
C    1.65207060  -0.64921504  -1.75876184
N    0.77697054  -0.01976746  -2.71889853
H    0.02074710  -0.61260843  -3.04848057
H    2.68964295  -0.35293830  -1.83148538
H    1.50037102  -1.68842738  -1.49030339
H    0.98755977   1.35781249  -1.11496809
O   -1.74702099   0.49710976  -1.13552356
H   -1.63181577   1.45340362  -1.18122573
H   -0.74191655  -1.15139055  -0.64401612
