22
Energy: 1.061
C    1.73403914  -1.06245560   0.23837129
H    2.54242032  -1.35685130   0.90244912
H    1.11153573  -1.93395100   0.04596831
H    2.18305923  -0.72377371  -0.69413211
C    0.92509317   0.06764421   0.87722249
C    1.73613664   1.37636692   0.85973461
O    2.09583918   1.79109829  -0.43041563
H    1.28943835   1.80665022  -0.96817034
H    1.15823407   2.16261066   1.37086362
H    2.67458259   1.23393793   1.40205360
H    0.71132365  -0.17492744   1.92276341
C   -0.43143354   0.26962919   0.17195868
C   -1.35903988  -0.92703505   0.40869252
C   -2.81555591  -0.79809463   0.18057506
N   -1.99458744  -1.59594946  -0.70251618
H   -1.81919372  -1.13280057  -1.59190414
H   -3.50022562  -1.36021383   0.80063822
H   -3.19823405   0.15278322  -0.17098706
H   -1.03535594  -1.60060137   1.19429924
O   -0.28136908   0.53518516  -1.21003220
H    0.21708186  -0.19686791  -1.59687110
H   -0.90734253   1.17341558   0.57516646
