22
Energy: 1.66
C   -2.33927630  -0.17641445   0.66292374
H   -3.11833621   0.48674523   1.03007919
H   -2.79749193  -0.94512215   0.04457187
H   -1.86807064  -0.64415715   1.52277802
C   -1.31460580   0.62605093  -0.13297043
C   -0.53379658   1.58274028   0.79408665
O   -0.02634263   0.99186126   1.95824544
H    0.69640677   0.39397217   1.72394194
H    0.26657270   2.06601899   0.21490228
H   -1.21965871   2.36130129   1.14087802
H   -1.84950246   1.25865879  -0.85493297
C   -0.38241539  -0.28112245  -0.96762363
C    0.53012369  -1.14253505  -0.11217186
C    1.75001059  -1.75412215  -0.67876868
N    1.84066507  -0.66030546   0.26747571
H    2.06995890   0.21454580  -0.19801302
H    2.07574083  -2.71316922  -0.29981030
H    1.98754950  -1.56487164  -1.71697724
H    0.01037718  -1.69107822   0.66522580
O    0.44141667   0.48895970  -1.82397318
H   -0.11678618   1.05079222  -2.36996325
H   -1.01608503  -0.95437222  -1.57304175
