22
Energy: 1.747
C   -2.03048217   1.09213208  -0.58815773
H   -3.03372544   1.15393176  -0.17427295
H   -1.78549983   2.05211164  -1.03682256
H   -2.02710006   0.33035577  -1.36397899
C   -1.03593005   0.73979037   0.51262726
C   -1.44105169  -0.57994502   1.18296204
O   -0.45828273  -1.12059478   2.03215508
H    0.14434602  -0.40667826   2.28289442
H   -2.36533278  -0.40779455   1.75589538
H   -1.65710912  -1.33718382   0.42068427
H   -1.05038379   1.52863444   1.27426760
C    0.41414018   0.71098805  -0.00966893
C    0.77833281  -0.55129122  -0.76099341
C    0.53206236  -0.67779919  -2.21331073
N    1.87726264  -0.52998666  -1.70425771
H    2.26669344   0.39651527  -1.86136152
H    0.30669767  -1.65227175  -2.62320499
H    0.07404356   0.15035529  -2.74180225
H    0.75159604  -1.44952222  -0.15372350
O    1.26114019   0.87450956   1.12163852
H    2.15183103   0.58975485   0.88672167
H    0.55498982   1.57784295  -0.68220271
