22
Energy: 1.298
C   -0.27273073   0.43691281   1.97169984
H   -1.31899173   0.14459351   1.99249727
H    0.34090443  -0.41067148   2.26368206
H   -0.12056767   1.23541619   2.69305962
C    0.13104323   0.91965422   0.58120843
C    1.54392746   1.52889762   0.61215193
O    2.51022983   0.68602299   1.17257676
H    2.37069785  -0.19615318   0.80016965
H    1.83185047   1.81560482  -0.41386658
H    1.53707104   2.43407870   1.22624325
H   -0.55903304   1.70430599   0.25270988
C    0.05973123  -0.20896310  -0.46744060
C   -1.34397075  -0.75819550  -0.62557642
C   -2.37035909  -0.01165354  -1.38318634
N   -1.80511838  -1.23323417  -1.91178867
H   -1.14560037  -1.07944257  -2.67036582
H   -3.40530751  -0.08359805  -1.08049843
H   -2.09680747   0.93732251  -1.82995675
H   -1.66910177  -1.38011723   0.20177627
O    0.95733514  -1.24544984  -0.10347778
H    0.73882616  -2.03730059  -0.60680627
H    0.37855997   0.21314500  -1.44056340
