22
Energy: 2.19
C    1.60330301   1.84984611   1.03945169
H    2.08749858   1.89385413   2.01197409
H    2.35888037   1.94756999   0.26452662
H    0.91567490   2.68812509   0.95513726
C    0.84900697   0.53251739   0.86776023
C   -0.32020923   0.46924138   1.86095573
O   -0.88634739  -0.80796752   2.01553589
H   -0.20816206  -1.41261389   2.33669778
H    0.02670771   0.84793785   2.83397037
H   -1.13613687   1.10984934   1.51900686
H    1.53386951  -0.30007153   1.08190342
C    0.37646588   0.39235610  -0.59529412
C   -0.37252343  -0.90426215  -0.83426012
C   -1.84711124  -0.93367591  -0.92980242
N   -1.02886937  -1.13037072  -2.10332817
H   -0.98895408  -0.32539663  -2.72213186
H   -2.37369987  -1.81229083  -0.58648267
H   -2.39307033  -0.00679950  -0.80222232
H    0.12948243  -1.78823022  -0.45042076
O    1.46451974   0.50351044  -1.49402168
H    1.99290168  -0.30100177  -1.43908451
H   -0.26794829   1.24530933  -0.84021829
