22
Energy: 0.0
C   -1.26014554   0.03881279   1.43679591
H   -1.49408519  -0.10686099   2.49001174
H   -1.74537943   0.94852359   1.09503684
H   -1.66959416  -0.79032898   0.86197667
C    0.25097263   0.14271425   1.23249464
C    0.98641203  -1.04082874   1.88393930
O    0.61191523  -2.29815558   1.36006322
H   -0.31112190  -2.45813363   1.58887730
H    2.06072921  -0.95830879   1.69839737
H    0.82296671  -1.01895911   2.96970413
H    0.61992026   1.05312785   1.71511196
C    0.60577558   0.23084419  -0.26915933
C    0.00946461   1.48118974  -0.89976803
C   -0.07068997   1.60418643  -2.37072841
N   -1.26520111   1.42755026  -1.57254657
H   -1.61903591   0.47598881  -1.62508597
H    0.03649001   2.58120975  -2.82226480
H    0.28696381   0.77822414  -2.97156848
H    0.17631694   2.38293313  -0.31932769
O    0.14791348  -0.89124727  -0.98593272
H    0.43155032  -1.67744022  -0.49356878
H    1.70706297   0.30129966  -0.35131748
