22
Energy: 0.389
C    0.02969098  -0.07020671  -2.29914277
H    0.65240091   0.76332638  -2.61415449
H    0.66793201  -0.92941844  -2.11003640
H   -0.64806138  -0.31686214  -3.11323163
C   -0.76019372   0.29560849  -1.04679851
C   -1.66376989  -0.87908870  -0.64259935
O   -2.42855005  -0.63408081   0.51755600
H   -3.02353920   0.10488559   0.34362515
H   -2.32332908  -1.12450574  -1.48707878
H   -1.06456182  -1.76366337  -0.41875358
H   -1.40564310   1.15524704  -1.27135048
C    0.17088292   0.75639371   0.10191190
C    1.07319366  -0.34743471   0.62439976
C    2.42691630  -0.54830309   0.06122376
N    2.25232673  -0.00979853   1.38917218
H    2.41610244   0.98995948   1.46044009
H    2.84228440  -1.54670136   0.02966380
H    2.75958981   0.10024556  -0.74150873
H    0.54930897  -1.20983909   1.02306968
O   -0.57006040   1.33632991   1.15168806
H   -1.13518451   0.64229297   1.52291906
H    0.79774416   1.57414074  -0.28045991
