22
Energy: 0.754
C    0.29541722   2.01357079  -1.62043686
H   -0.56605357   1.60746498  -2.14443665
H    0.13569974   3.07996346  -1.47852058
H    1.17510797   1.87784584  -2.24393101
C    0.49021368   1.32543318  -0.27351377
C   -0.75964675   1.50685163   0.59459173
O   -0.52499481   0.96327775   1.88455083
H   -1.32873248   1.04278945   2.40685426
H   -0.98498719   2.57929896   0.67725384
H   -1.61492699   1.00606541   0.12509902
H    1.33018834   1.79802162   0.24854606
C    0.86222180  -0.16640919  -0.42487804
C   -0.32363511  -1.02043617  -0.86944718
C   -0.28890646  -2.48581287  -0.67778882
N   -1.18911992  -1.65675917   0.09689986
H   -0.86600991  -1.52551709   1.05254549
H   -0.76987956  -3.12492546  -1.40557031
H    0.57951659  -2.91350006  -0.19296199
H   -0.84098810  -0.64062152  -1.74396988
O    1.43355417  -0.66070452   0.76315033
H    0.92257621  -0.29013550   1.49835660
H    1.64606601  -0.25678190  -1.18979481
