22
Energy: 1.93
C    0.79994677  -1.60294068  -1.23530456
H    0.99961672  -1.90968014  -0.21082397
H    0.47032724  -2.46850120  -1.80704813
H    1.73272675  -1.24740378  -1.66581279
C   -0.25875119  -0.50323630  -1.28557833
C   -1.63281768  -1.02390667  -0.82987061
O   -1.67616005  -1.53550042   0.48012231
H   -1.09102660  -2.29911348   0.53011324
H   -2.36349525  -0.21156491  -0.85380648
H   -1.96365851  -1.79093113  -1.54548604
H   -0.39220379  -0.18794886  -2.32643061
C    0.20455765   0.75611268  -0.51256038
C    0.51079933   0.48547789   0.94824826
C    1.89946214   0.24274342   1.39805872
N    1.22427670   1.47719439   1.72183536
H    1.52914038   2.27511221   1.17190362
H    2.07362584  -0.41079633   2.24246852
H    2.69505255   0.24355857   0.66105322
H   -0.29882742   0.01239511   1.49464789
O   -0.73111360   1.80650576  -0.63837606
H   -1.45388799   1.64279792  -0.02147917
H    1.11027219   1.13385865  -1.00742456
