22
Energy: 2.214
C    1.21598681   1.86001859  -0.52602862
H    1.69203717   2.30832682  -1.39438282
H    0.78536904   2.65659906   0.07669609
H    1.97749331   1.35233113   0.06011791
C    0.13844121   0.87652219  -0.97061753
C    0.76269584  -0.24479470  -1.81817184
O   -0.18265458  -1.11536008  -2.38045957
H   -0.75203053  -1.43645639  -1.66433467
H    1.29531563   0.20149225  -2.66307896
H    1.49472435  -0.79928732  -1.21330295
H   -0.58039570   1.40666361  -1.61050630
C   -0.66051253   0.33211303   0.23605601
C    0.16271047  -0.51227386   1.18874651
C    0.88332783   0.11790976   2.31691390
N   -0.27607276  -0.70908856   2.54983421
H   -1.11791106  -0.19483621   2.78983806
H    1.81937630  -0.31135536   2.64719122
H    0.81217004   1.19174641   2.44874271
H    0.57827236  -1.41026925   0.74755819
O   -1.74745568  -0.47780938  -0.18645363
H   -2.29801877   0.02750862  -0.79611667
H   -1.05499671   1.19970068   0.79663093
