22
Energy: 0.44
C   -1.41735707  -0.11751508  -1.57220848
H   -2.09580247   0.55556019  -1.05404648
H   -0.84516894   0.44072394  -2.31056758
H   -2.01165449  -0.85565442  -2.10484068
C   -0.47771280  -0.82870100  -0.59960506
C    0.51816578  -1.70201176  -1.38504870
O    1.29620353  -0.97219841  -2.29344311
H    1.65689328  -0.20746539  -1.81801351
H    1.16280684  -2.24167541  -0.67208678
H   -0.02646014  -2.44183039  -1.97818681
H   -1.05949731  -1.48490536   0.05558884
C    0.29781210   0.15189758   0.31168994
C   -0.61552985   0.82783362   1.31649224
C   -0.92774173   0.16373635   2.60108955
N   -0.09252184   1.34128192   2.56061657
H    0.89703876   1.15784528   2.69648175
H   -1.90026952   0.31324206   3.04923475
H   -0.48391344  -0.80438257   2.80524918
H   -1.37446296   1.47017169   0.88003867
O    1.04283251   1.10347994  -0.42654945
H    0.42798171   1.72729907  -0.82964308
H    1.05875991  -0.42055631   0.86026684
