22
Energy: 1.373
C   -0.15516317   2.23201346   0.21556076
H    0.37318759   2.61263293  -0.65565488
H   -1.19453170   2.06069933  -0.05354227
H   -0.12160400   2.99124000   0.99225197
C    0.48884409   0.94458290   0.71951222
C   -0.27429084   0.39774991   1.93520623
O    0.44555254  -0.56906778   2.65133480
H    0.86376771  -1.15381700   2.00242268
H   -0.46226607   1.21575900   2.63714809
H   -1.24969208  -0.00185254   1.61773170
H    1.51039786   1.15765641   1.05383252
C    0.61718071  -0.09080044  -0.41714045
C   -0.70029465  -0.52828012  -1.02406269
C   -1.30401020   0.18986740  -2.16671000
N   -0.70926236  -1.11489568  -2.34922225
H    0.19231233  -1.08313144  -2.81924209
H   -2.38066099   0.21449683  -2.25963447
H   -0.79829929   1.06249200  -2.56235349
H   -1.36670124  -1.03816242  -0.33663600
O    1.31023518  -1.22239281   0.09322802
H    1.21317765  -1.95358939  -0.52794784
H    1.22852057   0.36672058  -1.21833507
