22
Energy: 1.441
C    1.41487400  -0.85924845  -0.98399451
H    2.24459941  -0.81182682  -1.68552366
H    1.75772513  -1.32457254  -0.06428112
H    0.62943412  -1.47356282  -1.41657067
C    0.88672740   0.54395113  -0.69694225
C    0.42283971   1.23007174  -1.98849714
O   -0.65390355   0.51218594  -2.56563675
H   -0.90280874   0.92903325  -3.39566795
H    0.10739272   2.25940821  -1.76216541
H    1.26543255   1.27472479  -2.69162033
H    1.69452906   1.15936478  -0.28650675
C   -0.24970675   0.51680948   0.34812549
C    0.27547327   0.08019103   1.70950685
C   -0.66997334  -0.34383888   2.76385997
N    0.19659890  -1.30256128   2.11209307
H   -0.30496605  -1.85907762   1.42431953
H   -0.42882629  -0.13977260   3.79849969
H   -1.72639998  -0.34611396   2.52935214
H    1.18570825   0.58777719   2.01216826
O   -1.29741629  -0.34711529  -0.01859754
H   -1.42984756  -0.24148397  -0.97114348
H   -0.63870140   1.54922757   0.45077151
