22
Energy: 2.357
C   -1.36743994  -1.05190880   1.86591072
H   -1.94499009  -0.66986639   2.70357553
H   -1.98125750  -1.74759839   1.29949232
H   -0.50237372  -1.58297195   2.25593530
C   -0.90300873   0.09403067   0.96962834
C    0.15201782   0.94420837   1.69837615
O    1.32532838   0.24086941   2.01878771
H    1.78579271   0.01703141   1.20373428
H    0.38988925   1.83852014   1.10604029
H   -0.25972548   1.26767368   2.65755871
H   -1.75316093   0.75024554   0.74444397
C   -0.37939276  -0.46852605  -0.36835172
C    0.19274832   0.62633049  -1.25640699
C    1.64578759   0.71609809  -1.52620677
N    0.72872822   0.28782593  -2.55534793
H    0.73717819  -0.71169251  -2.73685214
H    2.09392173   1.68638193  -1.69377320
H    2.31241312  -0.00942879  -1.07046219
H   -0.38469825   1.54750232  -1.26136973
O   -1.39186523  -1.17611040  -1.05529312
H   -2.09051212  -0.55865023  -1.30072576
H    0.38329149  -1.23229972  -0.17106918
