22
Energy: 1.64
C    0.00489322  -2.16136273   1.36027419
H    0.91821932  -2.40398962   0.82394436
H    0.15909539  -2.39335071   2.41101437
H   -0.79822062  -2.79058446   0.98271051
C   -0.34535111  -0.68548974   1.20014368
C    0.84536265   0.20181138   1.59917514
O    0.48889188   1.55198087   1.76014679
H    0.07577227   1.84248854   0.93460032
H    1.22899947  -0.12032706   2.57080702
H    1.64727238   0.09693601   0.85575649
H   -1.17323652  -0.44911730   1.88300999
C   -0.83940804  -0.36443828  -0.22902135
C    0.23735766  -0.53486501  -1.29030052
C    0.04268183   0.02785937  -2.64462012
N    1.03530176   0.57607661  -1.74635372
H    0.74786863   1.46247030  -1.34233550
H    0.44236286  -0.50503431  -3.49658414
H   -0.85935743   0.59323481  -2.84123186
H    0.78249278  -1.46803508  -1.20987868
O   -1.32082870   0.96916753  -0.31691020
H   -2.04386815   1.07802778   0.30954642
H   -1.65970155  -1.06365574  -0.47053629
