22
Energy: 1.451
C    1.43432766   1.02564639   1.00085309
H    2.51254489   1.05550156   1.15077958
H    1.09721108   2.02899942   0.75775225
H    0.94894111   0.72369629   1.92729204
C    1.07451661   0.05904380  -0.12769222
C    1.86574194  -1.25467603  -0.00383451
O    1.62662144  -1.95040057   1.20053667
H    1.93309212  -1.40253658   1.93268091
H    1.57230476  -1.94485623  -0.79958756
H    2.93859137  -1.04366951  -0.11327574
H    1.34619341   0.50582011  -1.08898802
C   -0.44532915  -0.23583838  -0.14894694
C   -1.25189127   1.02138534  -0.41514495
C   -1.26220386   1.61877603  -1.76793076
N   -2.44342993   0.98821473  -1.22647015
H   -2.64794963   0.07504858  -1.62103815
H   -1.32906896   2.69284278  -1.87321432
H   -0.70523446   1.12565938  -2.55770883
H   -1.33504026   1.67151892   0.44730783
O   -0.88997773  -0.78194114   1.06726714
H   -0.30008969  -1.52143219   1.28586528
H   -0.63311948  -0.95282346  -0.97207983
