22
Energy: 1.046
C    1.51230077   1.06511128  -0.75879820
H    1.86267640   1.10673973   0.27050847
H    1.96113221   0.21048089  -1.26320406
H    1.84920386   1.96085416  -1.27385900
C   -0.01356133   0.97763957  -0.81744999
C   -0.47653544   0.63635242  -2.24583319
O    0.02670692  -0.58339384  -2.72076800
H   -0.20083936  -1.26637716  -2.07190892
H   -1.57745933   0.63707027  -2.27476751
H   -0.11489628   1.39978358  -2.93958557
H   -0.44720116   1.94733572  -0.55434517
C   -0.56443259  -0.05318707   0.18936057
C   -0.31554949   0.40265491   1.62951491
C   -0.84422469  -0.38721728   2.76306436
N    0.57777908  -0.31981419   2.50363037
H    0.93502846  -1.17932295   2.09284827
H   -1.17158435   0.12318389   3.65799349
H   -1.37459342  -1.30580086   2.54218319
H   -0.26590078   1.47935430   1.74896517
O   -0.05093375  -1.35109976  -0.03682753
H    0.91334701  -1.28605805  -0.04775335
H   -1.64801686  -0.15130539   0.03912265
