22
Energy: 2.044
C    1.86677463   1.20151563   0.09863420
H    1.76738035   1.67633511   1.07176822
H    2.35476878   0.23955191   0.23188876
H    2.50198941   1.82625576  -0.52386887
C    0.50005245   1.03332822  -0.55704316
C    0.61045514   0.31736689  -1.91151200
O   -0.49838920   0.55560827  -2.73964772
H   -1.29123118   0.48813201  -2.18610311
H    1.48027526   0.69528118  -2.45585757
H    0.75292768  -0.76490803  -1.76211171
H    0.08054654   2.02447459  -0.76350969
C   -0.48933158   0.31686899   0.39388750
C    0.07466960  -0.95194487   0.99544105
C    0.61589239  -0.97734308   2.37193939
N   -0.64224859  -1.61575266   2.06306587
H   -1.45649790  -1.10119995   2.38712080
H    1.42349465  -1.65732792   2.60516776
H    0.62289546  -0.05843594   2.94615358
H    0.49866656  -1.64610631   0.27523357
O   -1.71797230   0.03819736  -0.27331129
H   -1.76225213  -0.90758483  -0.45545401
H   -0.74305694   1.01407686   1.20653840
