22
Energy: 1.884
C    1.37577630   1.13479083  -1.95731962
H    1.91954991   1.85442855  -1.34899255
H    2.06318945   0.69698657  -2.67604977
H    0.59327806   1.66397474  -2.49487673
C    0.76398155   0.05258302  -1.06893428
C    1.85908366  -0.57366327  -0.18888386
O    1.56137836  -1.86333092   0.28133424
H    0.83120805  -1.81372275   0.90765326
H    2.76295734  -0.69829087  -0.79045991
H    2.09438447   0.10329007   0.64506105
H    0.34767071  -0.74056460  -1.70193097
C   -0.38544293   0.66256737  -0.23894031
C   -1.06357077  -0.36036378   0.65846201
C   -0.79815129  -0.39361620   2.11666204
N   -2.06382447   0.07605481   1.60607564
H   -2.18185018   1.08439137   1.63189335
H   -0.85164216  -1.33577427   2.64779943
H   -0.08981758   0.31448557   2.53348286
H   -1.32745458  -1.28964283   0.15829514
O   -1.34626303   1.28325475  -1.06972211
H   -1.78305128   0.60453128  -1.59723552
H    0.01315174   1.48295817   0.37172575
