22
Energy: 1.365
C   -0.34576905   2.40257945   0.76684529
H   -0.17789986   2.90189058   1.71875615
H    0.07465118   3.01215737  -0.02843593
H   -1.41738510   2.32750772   0.59023874
C    0.30519424   1.01929872   0.76417184
C   -0.27179566   0.13133678   1.87884347
O   -1.61188223  -0.23776881   1.66855799
H   -2.14768129   0.56310407   1.64235015
H    0.28123885  -0.80817016   1.93459854
H   -0.16367275   0.65373555   2.84076369
H    1.37832157   1.13459399   0.95824328
C    0.12757839   0.35026963  -0.61599149
C    0.83632722  -0.98961486  -0.67728501
C    0.10378690  -2.25158053  -0.43280487
N    0.55941062  -1.90693043  -1.75950975
H   -0.17591148  -1.58283118  -2.38086002
H    0.62923330  -3.08099702   0.02133335
H   -0.94917500  -2.19585384  -0.18598891
H    1.88903786  -0.94659761  -0.40616458
O    0.56724791   1.19388619  -1.66108961
H    1.52958990   1.24336391  -1.63219259
H   -0.94297244   0.20873827  -0.80479327
