22
Energy: 1.783
C    0.66678781  -1.91324942  -0.23650453
H    0.49279223  -2.96338520  -0.01312775
H    0.77647538  -1.79537601  -1.31055818
H    1.59464524  -1.60559682   0.23999416
C   -0.48956743  -1.06131918   0.27719360
C   -0.70584120  -1.32615411   1.77598092
O   -1.67079370  -0.48472152   2.36373208
H   -2.52471692  -0.65468853   1.95140975
H   -0.97471740  -2.38209412   1.91916281
H    0.21949765  -1.14175017   2.32891256
H   -1.40813588  -1.32849943  -0.25932795
C   -0.23948581   0.44381243   0.02277618
C   -0.09958518   0.72648543  -1.46500753
C    0.47786674   2.00658114  -1.92765411
N    1.19928676   0.76264667  -2.09025590
H    1.94674102   0.65975937  -1.40973426
H    0.11237992   2.44541922  -2.84632371
H    0.81211832   2.71636332  -1.18203837
H   -0.87700440   0.26950503  -2.06923694
O    0.92480395   0.90681572   0.67227336
H    0.76698446   0.87201967   1.62072100
H   -1.11611656   1.00225032   0.39416388
