22
Energy: 2.09
C   -1.18912418   1.82206689  -0.25541859
H   -2.12646925   1.30364603  -0.43735055
H   -1.14375063   2.11293457   0.79276695
H   -1.18056450   2.72977897  -0.85438032
C    0.00297232   0.94733842  -0.63539343
C    1.29504240   1.78888578  -0.56441806
O    2.47083611   1.03517885  -0.69493085
H    2.56554699   0.50213142   0.10399067
H    1.30309283   2.50632968  -1.38852913
H    1.30447863   2.34956337   0.38060212
H   -0.12851214   0.59474635  -1.66266520
C    0.15026113  -0.31098493   0.25555253
C   -1.15180885  -1.07670692   0.38586244
C   -1.61856366  -1.94564991  -0.71690498
N   -1.15901073  -2.51352509   0.52907588
H   -0.23772071  -2.93790563   0.48006899
H   -2.67996572  -2.04670471  -0.89704971
H   -1.00277301  -2.03020014  -1.60506798
H   -1.90075915  -0.58845809   1.00268341
O    0.69979459  -0.00529627   1.52288603
H    0.03434004   0.45564767   2.04512147
H    0.89500918  -0.96716439  -0.21429798
