22
Energy: 0.908
C    0.70198709   1.70628228  -1.87184074
H    1.62178740   1.78060872  -1.29647915
H    0.96325462   1.56233096  -2.91755205
H    0.16236517   2.64510549  -1.77735857
C   -0.15884787   0.54649778  -1.38369559
C    0.56079739  -0.79489029  -1.63753893
O   -0.02003201  -1.88244418  -0.94642142
H    0.37689077  -1.93630200  -0.06762162
H    0.49215873  -1.03798129  -2.70199857
H    1.62171952  -0.70330346  -1.38148617
H   -1.09522024   0.54309187  -1.95342888
C   -0.57270118   0.70809462   0.09354970
C    0.56651995   0.37736113   1.06198596
C    0.38696341   0.55823173   2.51764948
N    0.45967926  -0.76873262   1.94018390
H   -0.46522197  -1.19564087   1.89252518
H    1.23664635   0.84242650   3.12313050
H   -0.56998993   0.91724365   2.87473098
H    1.56382474   0.53405181   0.66642851
O   -1.71308014  -0.07394364   0.37541444
H   -1.59608693  -0.92283107  -0.08164303
H   -0.88201789   1.74884937   0.25960031
