22
Energy: 1.06
C    1.97289523   0.71818099  -0.04397376
H    2.32941463   0.01777114  -0.79742352
H    2.60489124   1.60116641  -0.09011278
H    2.07892858   0.27138678   0.94236109
C    0.52192052   1.10622023  -0.33302442
C    0.36104094   1.45050961  -1.82499996
O    0.70346458   0.39086762  -2.67662832
H    0.23730619  -0.39917245  -2.36256406
H   -0.67600547   1.77378434  -2.00894326
H    1.02799378   2.27611243  -2.08734142
H    0.25079993   1.99416920   0.24657473
C   -0.46620358  -0.01096152   0.05978709
C   -0.55641056  -0.16583715   1.57990212
C   -1.83737882  -0.54138671   2.21981746
N   -0.74002195  -1.47848871   2.15642966
H   -0.86972947  -2.19839905   1.44850404
H   -2.06113167  -0.16991093   3.21068266
H   -2.70519217  -0.69473346   1.58895750
H    0.11718457   0.46596655   2.14817913
O   -0.15322158  -1.24666224  -0.55927125
H    0.72255011  -1.51824905  -0.25587838
H   -1.45825459   0.24328603  -0.33634883
