22
Energy: 2.284
C    1.74289793  -1.23490052   0.93936878
H    2.16306361  -1.74168248   0.07331629
H    2.55694383  -1.00194598   1.62176894
H    1.05706326  -1.90794411   1.44914017
C    1.03574733   0.04871649   0.51245028
C    2.00751077   0.96471235  -0.24624642
O    1.47983778   2.24993962  -0.46649219
H    1.31882329   2.66992787   0.38608555
H    2.96119338   1.02719253   0.29727192
H    2.19550085   0.54932461  -1.23866180
H    0.68257521   0.57903519   1.40600332
C   -0.20018613  -0.22048295  -0.38055976
C   -1.39732589  -0.63672102   0.45379116
C   -2.36146129   0.37838526   0.93206972
N   -2.73174727  -0.56792420  -0.09477481
H   -2.76177830  -0.17542062  -1.03109245
H   -2.85627407   0.23040955   1.88247398
H   -2.19271449   1.41690419   0.67005816
H   -1.23590560  -1.51437631   1.07408161
O    0.06443654  -1.15229250  -1.40434754
H    0.13846531  -2.02940802  -1.01180673
H   -0.43531976   0.71159169  -0.91052665
