22
Energy: 1.686
C    1.56064774  -1.75718713   0.00311740
H    0.69711040  -2.31137261   0.36314562
H    2.07325859  -2.36398801  -0.73991447
H    2.23990294  -1.59039152   0.83493783
C    1.12825373  -0.42738710  -0.60639584
C    0.22210222  -0.69324880  -1.81405389
O   -0.26738549   0.52869091  -2.33402987
H   -0.78382166   0.35108556  -3.12602401
H    0.80596749  -1.22354246  -2.57948639
H   -0.61267542  -1.34224667  -1.51471482
H    2.01326674   0.11017264  -0.96438892
C    0.47043448   0.50416744   0.43964769
C   -0.94619880   0.09220647   0.80403416
C   -1.19576106  -0.86269718   1.90666501
N   -1.53200772   0.53437927   2.04889615
H   -0.88986696   1.06138974   2.63309878
H   -2.04668896  -1.52860038   1.84817730
H   -0.34813874  -1.26694241   2.44889418
H   -1.64962621   0.12349627  -0.02088197
O    0.50958950   1.84387123   0.01067264
H    0.08878219   1.87746576  -0.85944688
H    1.08727904   0.48355306   1.34900364
