22
Energy: 0.183
C   -1.23927089   0.79658906  -2.08834164
H   -0.82256146   1.77178845  -1.85209506
H   -1.09901107   0.61730579  -3.15202705
H   -2.30615814   0.81354841  -1.88056034
C   -0.55550797  -0.29840952  -1.27649345
C    0.96560393  -0.23964885  -1.48202314
O    1.64424409  -1.33411018  -0.89188235
H    1.40802164  -2.13866983  -1.36788375
H    1.18802427  -0.19139679  -2.55583858
H    1.37683957   0.65221587  -1.00485656
H   -0.91284536  -1.27392097  -1.63401394
C   -0.91673231  -0.23533541   0.22668672
C   -0.39768778   1.03123730   0.90296244
C   -0.23537407   1.06930811   2.37266542
N    0.91692114   1.09727749   1.49740074
H    1.42140864   0.21500785   1.47201663
H   -0.42929702   1.99226394   2.90169372
H   -0.45288798   0.16725919   2.93106761
H   -0.70165833   1.94779243   0.40959301
O   -0.47901288  -1.39735729   0.89042719
H    0.45191925  -1.53121718   0.64565834
H   -2.01121019  -0.23976098   0.32383013
