20
Energy: 0.725
C   -1.81668994   0.51326862   1.60081395
C   -0.54047718   0.67170651   0.81410597
C   -0.15054047  -0.23762715  -0.29554853
N    0.51143923  -0.31425241   0.98875499
H    1.44768362   0.07196817   1.02058077
C    0.52744394   0.32516789  -1.53823622
C    1.56218167   1.39543740  -1.34018414
O    2.13544422   1.67158205  -0.32435279
H    1.79647873   1.93084079  -2.28242012
H    1.04904351  -0.48366690  -2.06636427
H   -0.23695547   0.70217637  -2.22388915
C   -0.99437201  -1.47970503  -0.60126372
O   -1.17697270  -2.29168077   0.52318375
H   -0.44334213  -2.08322445   1.12706154
H   -1.98407916  -1.18758000  -0.97128818
H   -0.49220464  -2.05777656  -1.39505032
H   -0.22655680   1.70970927   0.71324349
H   -1.67750029   0.89944368   2.60833456
H   -2.61334390   1.07821152   1.12044958
H   -2.10940786  -0.52970166   1.66310700
