20
Energy: 0.284
C    1.17223187  -1.29312370  -1.91583895
C    1.07761848  -1.01359154  -0.43787589
C    0.38182403   0.17055004   0.12886572
N    1.83053859   0.10692320   0.09060457
H    2.28062763  -0.05926441   0.98496002
C   -0.34781789   0.01843232   1.45314189
C   -1.60463989  -0.79662310   1.33054791
O   -2.04516954  -1.26338860   0.31994921
H   -2.12078551  -0.94122031   2.30197234
H    0.28718979  -0.44697597   2.21377658
H   -0.63000564   1.00926906   1.82602791
C   -0.23660409   1.24677528  -0.74902739
O   -0.15253140   2.51180164  -0.13147361
H    0.78293922   2.72036525  -0.02319003
H    0.25348223   1.26430383  -1.72722816
H   -1.30047675   1.04268226  -0.88719967
H    1.02532031  -1.91779359   0.16755228
H    0.20180957  -1.60392512  -2.29605255
H    1.50211721  -0.40824632  -2.45066340
H    1.89068576  -2.09008170  -2.09451055
