20
Energy: 0.397
C    0.09597249   0.56883402   2.81918392
C   -0.06688472   1.08211870   1.41204984
C   -0.13313068   0.19336012   0.22201494
N    1.05954691   0.96792187   0.50079125
H    1.21780663   1.76928862  -0.09910734
C   -1.03775704   0.57255617  -0.93779114
C   -0.43441233   0.17169087  -2.25843358
O   -1.02847122  -0.33527390  -3.16530759
H    0.64687180   0.40381966  -2.33653851
H   -2.01985407   0.10821039  -0.82596715
H   -1.17393225   1.65880014  -0.96247238
C    0.07843913  -1.31607887   0.34560554
O    1.24801207  -1.64593083   1.03761000
H    1.88092557  -0.92965284   0.87163961
H   -0.76011933  -1.77642337   0.87849834
H    0.10975042  -1.73848103  -0.67334787
H   -0.65634997   1.99745618   1.35484859
H    0.61539670   1.30839246   3.42503716
H   -0.88446273   0.38901632   3.25518300
H    0.66329121  -0.35589350   2.82952754
