20
Energy: 0.622
C    1.06516450  -2.50650981  -0.50839824
C    0.91478653  -1.25800715   0.32247371
C   -0.18970458  -0.28065443   0.12428538
N    1.15639162   0.02337364  -0.31456221
H    1.65598192   0.70798223   0.24144557
C   -0.76342190   0.43590525   1.34985715
C   -0.67043801   1.91698404   1.10631037
O    0.19188306   2.62183624   1.54918319
H   -1.44361116   2.31786803   0.42417793
H   -1.79997362   0.13030425   1.49141372
H   -0.17871286   0.18283032   2.23657082
C   -1.18271745  -0.44172280  -1.02719140
O   -0.55077452  -0.56697585  -2.26936475
H    0.30307230  -0.11095386  -2.19280885
H   -1.79511908  -1.33785535  -0.87501204
H   -1.85318247   0.43244875  -1.03880665
H    1.26864830  -1.37832756   1.34600094
H    0.51472378  -3.32175486  -0.04330837
H    0.68705014  -2.35051458  -1.51337090
H    2.11515588  -2.78506422  -0.56706080
