20
Energy: 1.329
C    1.36338860  -1.41741466   1.58877846
C    0.46363451  -1.18514116   0.39967690
C   -0.55258690  -0.09341805   0.31607306
N   -0.94498327  -1.45905688   0.55998452
H   -1.39310751  -1.93370298  -0.21546489
C   -0.81145806   0.54070925  -1.05427813
C    0.43199430   0.53289688  -1.89343812
O    0.54276203   0.01950308  -2.97210012
H    1.28471036   1.05350560  -1.41439083
H   -1.61639373   0.01938769  -1.57874589
H   -1.10068636   1.58253582  -0.90114117
C   -0.77927312   0.86259544   1.47869080
O    0.11046842   1.95233017   1.45139739
H    1.00599167   1.62289588   1.58597273
H   -1.78063186   1.29490657   1.40163807
H   -0.71847388   0.31454309   2.42528009
H    0.92908582  -1.46686755  -0.54530327
H    0.83344174  -1.23253940   2.51770680
H    1.70055375  -2.45167231   1.59156762
H    2.23971323  -0.77337891   1.53388216
