20
Energy: 1.2
C    1.23242585   0.79924117  -2.60140203
C    0.16578167  -0.02195059  -1.92198029
C    0.06266304  -0.16191189  -0.44346452
N    0.58985566  -1.23440538  -1.24901019
H   -0.01695996  -2.03797940  -1.36675683
C   -1.35108651  -0.27921259   0.14740713
C   -1.27220251  -0.98205152   1.46878030
O   -1.09597506  -0.42982445   2.52193957
H   -1.34658114  -2.08397935   1.41397872
H   -1.73984679   0.73248141   0.28672558
H   -1.99263211  -0.82988586  -0.54183022
C    1.06477627   0.49423647   0.50944389
O    0.53290159   1.58717638   1.20568520
H   -0.05880545   1.25681227   1.89853751
H    1.43613722  -0.27559905   1.20102323
H    1.91406991   0.87470020  -0.05864416
H   -0.77802270  -0.04437019  -2.46582937
H    2.21348682   0.51565114  -2.23347452
H    1.20394900   0.62312157  -3.67417693
H    1.06984423   1.85885147  -2.41610199
