20
Energy: 0.0
C   -0.96314947  -1.04102793   2.02450037
C   -0.28823912  -0.02286354   1.14183282
C   -0.20156927  -0.14674097  -0.33746432
N    0.95390951  -0.38746745   0.48965144
H    1.66711158   0.33520262   0.46959821
C   -0.29598787   1.12067934  -1.19624443
C    0.22140457   2.31113933  -0.44224996
O    1.36768778   2.43994283  -0.10361264
H   -0.53622734   3.07502844  -0.18540283
H    0.33111491   0.97177683  -2.08042403
H   -1.33002541   1.26803719  -1.50791520
C   -0.71159540  -1.39214888  -1.06300414
O   -0.19499305  -2.57609250  -0.52602802
H    0.67805931  -2.35631091  -0.16319061
H   -1.80350961  -1.45017478  -0.99938892
H   -0.43405285  -1.31100817  -2.12704980
H   -0.36433215   0.99688518   1.52382152
H   -2.00963073  -0.77312450   2.15558234
H   -0.90278392  -2.03164128   1.58571780
H   -0.48400370  -1.05834872   3.00106673
