20
Energy: 0.853
C    1.72237173  -1.33737989  -1.70344835
C    1.05045974  -1.38438925  -0.35457840
C    0.47889161  -0.17573131   0.29877635
N    1.72926590  -0.73345729   0.74543888
H    1.71324930  -1.22064181   1.63383543
C   -0.76740239  -0.35483302   1.17684832
C   -1.95663086  -0.38252013   0.26741151
O   -2.48463412   0.59478729  -0.19465568
H   -2.30382215  -1.39404308  -0.01298032
H   -0.69110374  -1.28236044   1.74480658
H   -0.82520377   0.49823995   1.85756363
C    0.56440214   1.19074641  -0.39548426
O   -0.15439794   2.20271492   0.24897188
H   -1.10221794   2.03882821   0.11821809
H    1.60978812   1.50718158  -0.39227657
H    0.23057058   1.08275645  -1.43790776
H    0.54367360  -2.32898546  -0.15484606
H    2.34953659  -2.21625505  -1.83545961
H    0.97691127  -1.32130978  -2.49620446
H    2.34483764  -0.45207963  -1.77963725
