20
Energy: 1.346
C    0.63876965  -0.78863804   2.30324770
C    0.45553378   0.14712551   1.13211510
C    0.14694278  -0.30709978  -0.25225863
N    1.47313153   0.14409346   0.10089550
H    1.71298294   1.06695391  -0.24387074
C   -0.79078809   0.51013523  -1.13405195
C   -0.71847096   2.00433166  -1.05181280
O    0.11133038   2.66536548  -0.49211875
H   -1.54064897   2.49214721  -1.61475740
H   -0.59840732   0.26374820  -2.18609147
H   -1.82071206   0.19862116  -0.93360187
C    0.03397206  -1.79709616  -0.55656382
O   -1.19825244  -2.33670278  -0.13736401
H   -1.24438386  -2.27540514   0.82326733
H    0.07243020  -1.95886481  -1.63718832
H    0.88053564  -2.32568684  -0.10474674
H    0.03989485   1.10941735   1.42472901
H    1.14178575  -1.70140215   2.00001562
H    1.25134720  -0.30200777   3.05931691
H   -0.32398165  -1.03149444   2.75173159
