20
Energy: 0.701
C   -0.49911681   2.04967573  -1.33257133
C   -0.49025816   0.54310157  -1.24701596
C    0.50514733  -0.24035601  -0.46083552
N    0.59561608  -0.15749866  -1.89935864
H    0.33631493  -0.99635771  -2.40581226
C    0.01173686  -1.53541755   0.18817993
C   -0.87091659  -1.17797175   1.35267188
O   -2.06465783  -1.29940212   1.36266493
H   -0.32660278  -0.73790853   2.20617939
H   -0.56251984  -2.12005229  -0.53508103
H    0.86685074  -2.11828300   0.53458977
C    1.62497920   0.46041006   0.29494284
O    1.18397827   1.10431459   1.46521263
H    0.56516024   1.80164035   1.22086991
H    2.36430914  -0.27424564   0.62495498
H    2.12323077   1.16216508  -0.38486471
H   -1.48753677   0.10930957  -1.30886549
H    0.51148097   2.44645086  -1.32935035
H   -0.97926436   2.35700313  -2.25942057
H   -1.06419618   2.47080418  -0.50231258
