20
Energy: 0.917
C    2.51605325   0.18841866  -0.79725018
C    1.63339121  -0.23237187   0.35081341
C    0.27348738   0.33515367   0.56648548
N    1.38441495   0.73888917   1.39532425
H    1.37915685   0.37807190   2.34285699
C   -0.80654331  -0.57977336   1.14540473
C   -1.36128328  -1.44524875   0.05221583
O   -2.48571651  -1.39623911  -0.36599602
H   -0.61877693  -2.14257668  -0.38047003
H   -0.36423181  -1.22657319   1.90736055
H   -1.60545442   0.01509936   1.59516002
C   -0.26884777   1.41322108  -0.36466756
O   -0.63997337   0.91957363  -1.62748332
H   -1.45960404   0.41777354  -1.55433110
H   -1.11181745   1.92059531   0.12432749
H    0.51587883   2.14923683  -0.54383141
H    1.76653571  -1.27284507   0.64710949
H    2.08366296  -0.13427514  -1.74151782
H    2.61928209   1.26840104  -0.81061026
H    3.50351329  -0.25405007  -0.68905814
