20
Energy: 0.117
C    2.74729012   1.22055079  -0.52181174
C    1.36897643   0.84428311  -1.00636843
C    0.28143257   0.39231684  -0.09912195
N    0.99378393  -0.55121943  -0.92834180
H    0.46932767  -0.92514131  -1.71074800
C   -1.16625608   0.75598548  -0.43007005
C   -2.07188988  -0.37956711  -0.01151107
O   -2.08124577  -1.45341719  -0.55104781
H   -2.75818515  -0.14918717   0.82075920
H   -1.43809229   1.67942201   0.08067892
H   -1.26261327   0.89474585  -1.50963601
C    0.47367232   0.20288253   1.39608567
O   -0.44623444  -0.73956542   1.89397972
H   -0.25638020  -1.59353292   1.48600294
H    1.50134936  -0.11020656   1.60582876
H    0.26671644   1.13507049   1.92889370
H    1.04877891   1.41426546  -1.87831919
H    3.12322038   0.47314734   0.16916618
H    3.42971047   1.27977697  -1.36667916
H    2.72393014   2.18832434  -0.02492446
