20
Energy: 0.587
C   -0.52906268  -2.14472067  -0.94929146
C    0.35347139  -1.26228042  -0.10559774
C    0.34942637   0.22289888  -0.19661741
N    1.43867873  -0.54789600  -0.75482209
H    2.31482165  -0.51865567  -0.24688203
C    0.56769828   1.00830260   1.09434287
C   -0.66338360   0.91114526   1.95121058
O   -0.71048401   0.39396244   3.03026013
H   -1.56512513   1.34743818   1.48062304
H    1.41899402   0.60146771   1.64618021
H    0.76167098   2.05781228   0.85946706
C   -0.48498505   0.94747114  -1.25243361
O   -0.24959532   0.46927354  -2.54656493
H    0.66035544   0.13222698  -2.55672304
H   -1.55413484   0.82446229  -1.04937055
H   -0.24768698   2.02357165  -1.20555204
H    0.55234494  -1.67230079   0.88403868
H   -0.04551650  -3.10593123  -1.11032791
H   -1.47134359  -2.31309067  -0.43200924
H   -0.72908208  -1.68611534  -1.91224860
