20
Energy: 0.547
C    1.26329614   0.54631799  -1.93295682
C    1.26105644  -0.18437809  -0.61654780
C    0.23805559   0.05127696   0.43532815
N    1.58820882   0.55773504   0.58955936
H    2.16976361   0.06834769   1.26032569
C   -0.22489511  -1.13153780   1.26519158
C   -1.27551976  -1.95727506   0.57182091
O   -1.72265825  -1.75552664  -0.51876158
H   -1.61499098  -2.81879510   1.18237209
H    0.61405521  -1.79759223   1.49479807
H   -0.63754186  -0.79732540   2.22304940
C   -0.81037178   1.15049550   0.27371409
O   -0.24165966   2.40611128   0.02305746
H    0.65664730   2.37922696   0.38957989
H   -1.48070824   0.91046401  -0.55728670
H   -1.41140991   1.19513035   1.19750454
H    1.64276624  -1.20291900  -0.68906168
H    2.27536671   0.59742874  -2.32946386
H    0.63594432   0.00835754  -2.64024850
H    0.87856884   1.55390507  -1.81470852
