20
Energy: 0.317
C    2.66244217   0.00382793   0.16321910
C    1.30342684  -0.60904580   0.39084121
C    0.03651377   0.17272673   0.39677233
N    0.62464203  -0.29760153   1.63097009
H    0.15057131  -1.07567409   2.07646643
C   -1.22651853  -0.50242769  -0.13909028
C   -1.01497547  -0.92300946  -1.56219272
O   -1.15230631  -2.03722262  -1.98324805
H   -0.68336865  -0.09755167  -2.22189132
H   -1.49356869  -1.37551637   0.46169151
H   -2.04381704   0.22322953  -0.09731329
C    0.02466721   1.68447107   0.22283120
O   -1.11245018   2.26205060   0.81779928
H   -1.07725357   2.08170288   1.76444596
H    0.93991601   2.11260995   0.64457137
H   -0.03103021   1.94094473  -0.83825913
H    1.21908854  -1.62571090   0.00867424
H    2.78789504   0.89204291   0.77399391
H    3.43629848  -0.71046282   0.43482596
H    2.78719018   0.26827568  -0.88476787
