20
Energy: 1.213
C   -2.09287633  -0.16304644   1.93703390
C   -1.47800476  -0.41585374   0.58161852
C   -0.12467577   0.06147820   0.17923717
N   -1.31901414   0.72050679  -0.30090162
H   -1.54286210   0.55205152  -1.27531823
C    0.69644004  -0.81543033  -0.76614728
C    1.13329853  -0.02416634  -1.96554066
O    0.86830392  -0.29921932  -3.10164381
H    1.71936076   0.88085696  -1.71692765
H    1.58142182  -1.15508444  -0.22202112
H    0.12369763  -1.68353301  -1.09998070
C    0.73282397   0.87507143   1.13862496
O    1.40845059   0.05780022   2.06439828
H    0.75557714  -0.38652142   2.61670611
H    1.51515447   1.39963137   0.58493065
H    0.11136561   1.62595855   1.63916530
H   -1.80026618  -1.35966353   0.14236445
H   -3.17647320  -0.21882491   1.85805630
H   -1.76370874  -0.91690893   2.65068814
H   -1.83249878   0.82479834   2.30311059
