20
Energy: 0.065
C   -0.63014206  -0.04305108  -2.66508317
C    0.20923551  -0.04007880  -1.41155803
C   -0.34912248  -0.14711916  -0.03767447
N    0.12460191   1.11539324  -0.54710068
H    1.00698390   1.43773960  -0.15862896
C    0.44842776  -0.91236203   1.02982939
C    1.92419393  -0.72589111   0.86796450
O    2.47671004   0.34342400   0.86849646
H    2.50265910  -1.65770934   0.72004148
H    0.14288514  -0.50735847   2.00025127
H    0.18038945  -1.96853630   0.98974251
C   -1.84461885  -0.20246658   0.23842569
O   -2.15823075   0.42078870   1.45969947
H   -1.86070869   1.33707815   1.40417285
H   -2.39062545   0.26971706  -0.58543182
H   -2.17466076  -1.23990124   0.33566646
H    1.18987981  -0.49988675  -1.54593686
H   -1.46215451   0.64670934  -2.56663154
H   -0.02417264   0.27193921  -3.51146215
H   -1.01340604  -1.04198643  -2.86385364
