20
Energy: 0.688
C   -1.60459212   1.73894962  -0.88007605
C   -1.06726502   0.60306620  -0.04319296
C    0.18901675  -0.13784267  -0.34734097
N   -1.09640547  -0.72344144  -0.61645316
H   -1.37206789  -1.46618978   0.01970788
C    1.04902915  -0.64336281   0.82075298
C    0.20948904  -0.89387560   2.03617290
O   -0.63647053  -1.74694391   2.10042764
H    0.39385657  -0.21377484   2.88968464
H    1.49984927  -1.58912857   0.50611401
H    1.83604972   0.08468851   1.01680900
C    1.03163564   0.21288143  -1.56596193
O    1.79601000   1.37824922  -1.37100988
H    1.19528695   2.12284792  -1.25465258
H    1.75397845  -0.58490972  -1.75614960
H    0.37940414   0.30026442  -2.44248029
H   -1.31057633   0.70432506   1.01579819
H   -1.15885401   2.68362328  -0.57128275
H   -1.40894185   1.56930485  -1.93414223
H   -2.68163720   1.81056667  -0.74393957
