20
Energy: 0.957
C   -0.46381229   0.75069648  -2.41211166
C   -0.59985412  -0.40798859  -1.45779477
C    0.29841121  -0.59124860  -0.28320963
N    0.44466396  -1.40920141  -1.46233108
H    0.13814733  -2.37170175  -1.37571506
C   -0.30120622  -1.21185556   0.98604492
C   -1.16398806  -0.17392491   1.64013596
O   -0.78431813   0.61109275   2.46653541
H   -2.20272120  -0.13943292   1.26177805
H   -0.90078788  -2.08510437   0.72357920
H    0.50819458  -1.50772595   1.65728524
C    1.44417146   0.38343154  -0.02651397
O    1.02379985   1.66589783   0.35746728
H    0.63944523   1.62668184   1.24273892
H    2.11988427  -0.05078672   0.72450084
H    2.00399037   0.51108046  -0.95461552
H   -1.62716592  -0.74893837  -1.32793626
H    0.56850451   0.85423962  -2.72853956
H   -1.08380329   0.58398027  -3.29009162
H   -0.77471427   1.67299444  -1.92707366
