20
Energy: 0.735
C   -1.79257108   1.60096128  -0.63795823
C   -1.15001120   0.25654478  -0.87461063
C    0.30042913  -0.01926343  -0.67465095
N   -0.24720642   0.13361439  -2.00106021
H   -0.33298535  -0.71909015  -2.54227720
C    0.68487479  -1.41126931  -0.16547352
C    0.42084547  -1.44786909   1.31674034
O   -0.62299749  -1.78346398   1.80482746
H    1.25874093  -1.09078347   1.93934881
H    0.06191298  -2.16017083  -0.66030154
H    1.73721216  -1.60368755  -0.37703184
C    1.24973546   1.08127071  -0.22839271
O    1.14170975   1.36533944   1.14492509
H    0.24815127   1.67633689   1.32905397
H    2.28449749   0.76364745  -0.38287188
H    1.07336946   1.97484101  -0.83902505
H   -1.82074992  -0.57500550  -0.66388018
H   -2.07715772   1.70195356   0.40824907
H   -1.12264140   2.40870574  -0.91605226
H   -2.69244821   1.68424984  -1.24397905
