20
Energy: 0.421
C   -1.87572089   0.40150031   1.60774795
C   -0.61628843   0.95181793   0.98854090
C    0.50857198   0.10580197   0.49989432
N    0.61340945   0.83494828   1.74402854
H    1.21921309   1.64834996   1.72319618
C    1.25568093   0.59201813  -0.73485433
C    0.38854840   0.63650250  -1.96196582
O   -0.74691463   0.25900816  -2.03383475
H    0.90247233   1.07115242  -2.84195903
H    1.67170812   1.59259353  -0.57818376
H    2.09430992  -0.07601032  -0.95458555
C    0.50187007  -1.41037093   0.63531604
O    0.13680078  -2.06291926  -0.55387001
H   -0.67478447  -1.65898227  -0.88929761
H    1.51565747  -1.75410834   0.86620839
H   -0.15120706  -1.70426289   1.46537074
H   -0.78385447   1.87345745   0.43101271
H   -1.63983225  -0.38256785   2.32010100
H   -2.40092396   1.19510061   2.13468608
H   -2.53073401   0.00630651   0.83392811
