20
Energy: 1.299
C   -1.58093000  -1.04540286  -1.56167450
C   -0.91073560  -0.70400357  -0.25627267
C    0.36386353   0.05567092  -0.15999114
N    0.33646529  -1.37049101   0.07324332
H    0.44304430  -1.68024865   1.03118742
C    0.55872048   1.05089721   0.98079894
C   -0.31142406   0.77342845   2.17254399
O   -1.09539346   1.54114184   2.65143837
H   -0.15689859  -0.23086952   2.62152144
H    1.60159446   1.00650815   1.31351962
H    0.34996176   2.05703525   0.61098384
C    1.14884095   0.44505889  -1.41413470
O    1.38263247  -0.64002586  -2.26592998
H    1.41339678  -1.43095725  -1.70455669
H    0.60068191   1.20142541  -1.98536022
H    2.10904917   0.88419486  -1.09634234
H   -1.61563645  -0.54034051   0.56010536
H   -2.27774519  -0.25354856  -1.82772814
H   -0.84870154  -1.15555082  -2.35489312
H   -2.13506180  -1.97628971  -1.46093908
