20
Energy: 0.376
C    1.51574880  -1.83528315   0.86920888
C    0.14669864  -1.51007856   0.32699355
C   -0.52105662  -0.19187996   0.50025344
N   -0.92828330  -1.33112769   1.28425441
H   -1.81880448  -1.74161089   1.02712272
C   -1.38970884   0.33720801  -0.63870972
C   -0.49980261   1.04657528  -1.63359442
O    0.36690986   0.50152192  -2.26245000
H   -0.71657910   2.12008830  -1.76949432
H   -1.87286879  -0.50120527  -1.14639833
H   -2.15097732   1.01318399  -0.24808054
C    0.13586857   0.95420816   1.25173644
O    0.86386883   1.78304547   0.37719445
H    1.60120780   1.28187689   0.00855566
H   -0.63595261   1.59341072   1.69035942
H    0.76362437   0.57028794   2.06191064
H   -0.07636919  -2.03275953  -0.60153293
H    1.64490095  -1.42303456   1.86509066
H    1.63646055  -2.91464442   0.93036619
H    2.28437520  -1.44094151   0.20700165
