20
Energy: 0.901
C   -0.99871036  -1.11555610  -2.61863443
C   -0.15513689  -1.26179537  -1.37662636
C   -0.21757632  -0.30473671  -0.23763737
N    0.89455580  -0.29104597  -1.16441267
H    1.77020056  -0.65225228  -0.80377049
C   -0.01554352  -0.84638292   1.17214982
C    1.04977546  -0.13157414   1.95703109
O    1.59590847   0.88881077   1.64630839
H    1.30824481  -0.65157320   2.90136612
H   -0.94681099  -0.73854500   1.73709391
H    0.23303915  -1.91153218   1.15530661
C   -1.13982351   0.90933512  -0.30808336
O   -0.99334403   1.77509517   0.78619189
H   -0.05995065   2.02223251   0.84881005
H   -0.94880704   1.43801422  -1.25012692
H   -2.18489874   0.58285920  -0.28968885
H    0.04962612  -2.30164673  -1.11866082
H   -2.02398082  -1.41933524  -2.41720510
H   -0.99261763  -0.08597063  -2.95955034
H   -0.59933665  -1.74462125  -3.41110376
