20
Energy: 0.051
C   -1.68441809   0.05947213  -1.82195409
C   -0.21241445   0.17880783  -1.52751151
C    0.31644460   0.60520098  -0.20233934
N    0.32727204   1.50796658  -1.33617627
H    1.23855264   1.67158044  -1.75137381
C    1.64709681   0.01754833   0.25083136
C    1.55265259  -1.31842042   0.92722499
O    0.54856381  -1.86605624   1.28864075
H    2.54165766  -1.79102255   1.08654695
H    2.33124762  -0.08603732  -0.59835444
H    2.13213141   0.69851532   0.96121038
C   -0.64323881   0.99139580   0.92042157
O   -1.57621628  -0.00215779   1.24107674
H   -1.09590358  -0.83444049   1.38072854
H   -0.05329424   1.27001333   1.80956009
H   -1.21764382   1.86541944   0.60616540
H    0.39774188  -0.54221201  -2.07387305
H   -1.85157564   0.13201457  -2.89484400
H   -2.05720213  -0.89904266  -1.46938857
H   -2.23314698   0.85149657  -1.32528670
