20
Energy: 0.971
C   -0.19776082   0.10845330   3.11533394
C    0.65962531  -0.04774934   1.88423464
C    0.13072070   0.05093713   0.49817071
N    0.46249275  -1.23580602   1.07766218
H    1.31139743  -1.66425622   0.72444215
C    1.01036710   0.63840275  -0.59424129
C    0.70804356   0.02193858  -1.93812973
O    0.56132580   0.63100576  -2.95734110
H    0.69766223  -1.08634935  -1.92052539
H    0.87241415   1.71986835  -0.65295004
H    2.06259801   0.43218397  -0.37376419
C   -1.34690711   0.26349553   0.20773270
O   -1.70801905  -0.32971811  -1.01527216
H   -1.61101867  -1.28530676  -0.92665798
H   -1.95504845  -0.13551279   1.02593371
H   -1.55447102   1.33050728   0.09512361
H    1.68053998   0.30624921   2.02367760
H    0.35727853  -0.21740408   3.99210256
H   -0.48126997   1.15012204   3.25016184
H   -1.09360901  -0.49849225   3.03413089
