20
Energy: 0.411
C   -1.06758599   0.47732253  -2.29707375
C   -0.68292277  -0.58232860  -1.29727380
C    0.23213549  -0.33184590  -0.15180546
N    0.68304692  -1.07731028  -1.30752673
H    0.79154581  -2.07650260  -1.17946358
C   -0.03654246  -1.04562813   1.16528632
C   -1.02129355  -0.25612345   1.98335218
O   -0.84434742   0.12472936   3.10368756
H   -1.96214673  -0.03760498   1.44030948
H   -0.47899148  -2.02641268   0.96668788
H    0.88849330  -1.18182139   1.73075000
C    0.93766982   1.01216874   0.02374686
O    1.60130360   1.43239303  -1.13445666
H    1.89088369   0.62946532  -1.59486962
H    0.21345029   1.78956809   0.28957904
H    1.65478661   0.91829515   0.85524601
H   -1.47116182  -1.31623903  -1.12552139
H   -0.26983198   1.20325560  -2.41479212
H   -1.27335384   0.01917900  -3.26226636
H   -1.96559758   0.98917212  -1.95712972
