20
Energy: 1.327
C   -0.67572461  -1.81603697  -2.02630748
C    0.31152113  -1.36909434  -0.97688011
C    0.28615645  -0.02652329  -0.33611612
N    1.26985083  -0.34928852  -1.35137432
H    2.21551908  -0.49343502  -1.01424513
C    0.71188682   0.09884976   1.11848152
C   -0.36773190  -0.38395617   2.04889280
O   -0.67712706   0.13299787   3.08249929
H   -0.87365833  -1.30473103   1.69217003
H    1.59508274  -0.52091058   1.30725894
H    0.96057930   1.13679427   1.35243615
C   -0.70520638   1.05344140  -0.74705245
O   -0.09279885   2.31882124  -0.76835560
H    0.64404584   2.27579363  -1.38982119
H   -1.13537969   0.82013582  -1.72736999
H   -1.51109747   1.11841957  -0.01142646
H    0.66356508  -2.18377259  -0.34395728
H   -0.77019840  -1.06399883  -2.80308274
H   -0.32932054  -2.73892304  -2.48592854
H   -1.65167181  -1.99481701  -1.57942944
