20
Energy: 0.905
C    0.68951456   1.30329341  -1.90284297
C   -0.24339430   0.65474505  -0.91278304
C    0.18275943  -0.38782639   0.06448647
N   -0.60081213  -0.73630294  -1.09936591
H   -1.57298117  -0.96741233  -0.93172780
C   -0.46958201  -0.41044207   1.44841238
C   -1.06785838   0.92455709   1.79226050
O   -2.22909564   1.12818038   2.01108558
H   -0.32197781   1.74282025   1.82493954
H   -1.24357360  -1.18190074   1.49241637
H    0.29330132  -0.63636848   2.19606396
C    1.59483781  -0.97444479   0.03186224
O    1.98826734  -1.37658438  -1.24843501
H    1.18439574  -1.66952484  -1.70563729
H    2.32346700  -0.23536351   0.38136252
H    1.62136245  -1.83781954   0.71757488
H   -1.03823939   1.32092663  -0.57547062
H    1.49474284   0.62947272  -2.17636303
H    0.14017119   1.57985006  -2.80028491
H    1.11340821   2.20451338  -1.46478811
