20
Energy: 1.279
C   -1.53996418   2.32376477  -0.00502706
C   -0.45319450   1.49685660  -0.64267536
C   -0.21833048   0.06589129  -0.30735891
N    0.67187240   1.09795146   0.17937965
H    1.58556063   1.13575626  -0.25572678
C    0.23290533  -0.87491683  -1.41235218
C    1.36712492  -1.78420861  -1.01419967
O    1.96566794  -1.75830361   0.02072625
H    1.62978362  -2.50881799  -1.81280044
H   -0.60561807  -1.49577245  -1.74005571
H    0.57238821  -0.31197603  -2.28869637
C   -1.01367609  -0.63116717   0.79752983
O   -1.00250955   0.07790295   2.00263901
H   -0.12811366   0.49232655   2.06622935
H   -2.06110548  -0.74543796   0.49730992
H   -0.58361605  -1.63428713   0.94728939
H   -0.24189805   1.78710828  -1.67324523
H   -1.24471441   3.37074389   0.01606347
H   -2.45664894   2.23229526  -0.58429627
H   -1.72564207   1.98952758   1.01036414
