17
Energy: 3.552
C    0.83688644  -0.79111579   1.32241980
H    1.06080551  -1.76287981   1.75558314
H    1.65580234  -0.50834834   0.66454193
H    0.76551777  -0.05487536   2.11871843
C   -0.47959589  -0.84756876   0.54632906
C   -0.33036277  -1.79734501  -0.61647285
O   -0.96498806  -2.80037006  -0.77507631
H    0.44588725  -1.48293376  -1.33919355
C   -0.88570524   0.54054227   0.02288154
H   -1.81199008   0.46313283  -0.55402171
H   -1.02031704   1.22600734   0.86416641
O    0.08978499   1.08777552  -0.85805132
C    0.86720327   2.05530440  -0.38860447
N    0.79078927   2.51056569   0.78007484
H    1.43627889   3.25911984   0.99593741
H    1.55339563   2.37557289  -1.18453520
H   -1.28235072  -1.20585496   1.19750436
