17
Energy: 1.482
C    1.72328651   1.33993238   1.14546827
H    2.53381024   1.06189803   0.47652012
H    1.60374174   2.42100747   1.13013008
H    1.98904020   1.03239279   2.15390957
C    0.43338969   0.64597469   0.70855127
C    0.67410500  -0.86692217   0.74107704
O    1.44748682  -1.41474392  -0.00784271
H    0.32896013  -1.35422844   1.67165262
C    0.06558388   1.04964382  -0.71916882
H    0.22601793   2.11519770  -0.89444375
H    0.67961499   0.46016827  -1.41033372
O   -1.31475027   0.83880993  -1.02270861
C   -1.84145803  -0.31797002  -0.70227033
N   -1.22713175  -1.23087545  -0.08619742
H   -1.71960848  -2.09248493   0.09768291
H   -2.88452135  -0.36440836  -1.04061595
H   -0.38194503   0.91416753   1.38603653
