17
Energy: 3.686
C    1.00480755  -0.70130613   2.18693721
H    0.57615256  -1.69023634   2.04641815
H    2.08635880  -0.78969571   2.24463838
H    0.63140421  -0.30128594   3.12555926
C    0.59585901   0.21365384   1.03812103
C   -0.89524421   0.45459612   1.02936147
O   -1.66119077   0.08239191   1.87030463
H   -1.24080303   1.04194649   0.15768467
C    1.05665718  -0.36215026  -0.31128014
H    2.12584448  -0.58716678  -0.25776756
H    0.49477172  -1.26778933  -0.55381182
O    0.89994813   0.57984410  -1.36722451
C   -0.08017174   0.37281991  -2.23908993
N   -0.86848123  -0.60311756  -2.18097818
H   -1.56399907  -0.64646453  -2.91417141
H   -0.06491473   1.17743959  -2.98686653
H    1.06530331   1.19917136   1.15437595
