17
Energy: 3.581
C    0.45317709   1.05005219   1.65716144
H    1.03259325   1.96971977   1.65709836
H   -0.38985547   1.16663698   2.33560006
H    1.08020114   0.24026717   2.02139536
C   -0.03732983   0.72755812   0.24241861
C   -0.97301008   1.82563528  -0.18961279
O   -0.75169299   2.63533104  -1.04167795
H   -1.91793903   1.84815328   0.39183240
C   -0.77296462  -0.61995947   0.21842454
H   -1.62168595  -0.60533704   0.90698342
H   -1.11028318  -0.83684094  -0.79998336
O    0.05215441  -1.68586282   0.66754615
C    0.92958486  -2.17259081  -0.20243996
N    1.06236694  -1.72686450  -1.36874000
H    1.75376968  -2.19690812  -1.93915259
H    1.47925305  -2.99990340   0.26728330
H    0.80800438   0.67950840  -0.44874776
