17
Energy: 1.893
C   -1.49675680   1.40178684  -0.39918544
H   -1.15435299   1.69679697   0.59009726
H   -1.31742670   2.22662910  -1.08567636
H   -2.56754619   1.22077730  -0.34917453
C   -0.77722259   0.14771079  -0.87876315
C   -0.97006513  -1.05531630   0.04862477
O   -0.60060462  -2.16502782  -0.25171502
H   -1.71211184  -0.88834466   0.85123011
C    0.72173745   0.37483636  -1.11452647
H    1.19518103  -0.60584337  -1.23960093
H    0.89773725   0.99157266  -1.99791745
O    1.37265716   1.07814095  -0.05891955
C    1.22170795   0.60674822   1.15659559
N    0.49252711  -0.38337002   1.43146523
H    0.44106829  -0.68690279   2.39255647
H    1.80899048   1.19790109   1.87109656
H   -1.19265127  -0.15817975  -1.84620543
