17
Energy: 3.684
C    1.59988861   0.56870529  -1.44364965
H    1.78953900  -0.49580622  -1.33313350
H    1.13273159   0.74130782  -2.41011497
H    2.54770286   1.10056603  -1.41544566
C    0.68042014   1.05662343  -0.32395152
C    1.35314206   0.84301000   1.01110288
O    1.55811941   1.69813856   1.82359539
H    1.65297977  -0.20666787   1.18466729
C   -0.65206181   0.30044734  -0.33899125
H   -1.31977998   0.66102108   0.45151404
H   -1.16313068   0.43904688  -1.29840722
O   -0.41042165  -1.08898978  -0.14282216
C   -1.48200518  -1.86816317  -0.19188176
N   -2.63615596  -1.42040969  -0.40512969
H   -3.37427936  -2.11324844  -0.42036048
H   -1.18342093  -2.91161469  -0.02296347
H    0.46559875   2.12248687  -0.44486981
