17
Energy: 3.726
C    1.44822661   0.96206260  -0.00220560
H    2.12876115   1.46243420   0.68154632
H    1.71092708  -0.09233136  -0.02876124
H    1.56762038   1.37644150  -0.99920677
C    0.01153610   1.13250065   0.47968688
C   -0.16962045   0.59085306   1.87890174
O    0.71075637   0.25031580   2.61340948
H   -1.23218575   0.53884160   2.19159665
C   -1.01133309   0.48157414  -0.46346711
H   -2.02899869   0.69552374  -0.12249564
H   -0.86852122   0.84583351  -1.48401099
O   -0.88460814  -0.93710076  -0.46345217
C   -0.29869762  -1.50158872  -1.51152850
N    0.12156744  -0.86063556  -2.50736994
H    0.53382453  -1.42300780  -3.24045175
H   -0.26587373  -2.58822370  -1.35541870
H   -0.23823418   2.20033482   0.52855750
