17
Energy: 2.398
C    0.05243631  -0.46921395   2.24106152
H   -0.12412879   0.48172221   2.73542120
H   -0.65448412  -1.20274200   2.61864135
H    1.05707521  -0.81040026   2.48010176
C   -0.11491202  -0.33047637   0.73172536
C   -0.08934255  -1.66793528   0.03813006
O   -0.27696340  -2.72826400   0.56341110
H    0.10697245  -1.59265505  -1.04952763
C    0.93601341   0.61625424   0.13475022
H    0.87501747   1.58052460   0.64930701
H    1.93890184   0.19660531   0.24142301
O    0.76329574   0.82597758  -1.26110611
C   -0.23783422   1.61578610  -1.62827223
N   -1.03287314   2.14335815  -0.80994749
H   -1.74313070   2.73857270  -1.21750766
H   -0.23562429   1.71907644  -2.72149375
H   -1.09779156   0.10755130   0.51203526
