17
Energy: 3.703
C   -1.75111655  -1.48406642   0.95071240
H   -1.60319514  -2.02233664   1.88303896
H   -2.31402202  -0.58023714   1.16746925
H   -2.32641313  -2.10751295   0.27128495
C   -0.40181483  -1.12049300   0.34028370
C    0.39620065  -0.23753004   1.27521417
O   -0.04012495   0.31101665   2.24463310
H    1.46537435  -0.15470861   1.00043965
C   -0.61551040  -0.40011714  -1.00458527
H   -1.18490925  -1.05051156  -1.67350023
H   -1.15204151   0.53815380  -0.83715050
O    0.60258414  -0.12603713  -1.68236531
C    1.16007900   1.05823807  -1.45692735
N    0.66114243   1.91166390  -0.68277525
H    1.17075250   2.78106509  -0.59629734
H    2.08211135   1.14134035  -2.04785240
H    0.19119114  -2.02180571   0.14793504
