17
Energy: 0.0
C   -0.69234271  -1.39596792  -1.94072568
H    0.04112529  -2.19313706  -1.84082637
H   -1.68744134  -1.83487902  -1.93737059
H   -0.53481941  -0.89855837  -2.89410154
C   -0.54539754  -0.38969949  -0.79853263
C    0.83301378   0.25366856  -0.92928156
O    1.01025887   1.34545073  -1.41661771
H    1.65765558  -0.47571896  -0.82634623
C   -0.73824669  -1.08786468   0.54881502
H   -1.62610536  -1.72296715   0.53524304
H    0.14822953  -1.68802560   0.78367229
O   -0.96847314  -0.16071008   1.60614451
C   -0.00360492   0.71311959   1.80464700
N    1.06661296   0.68432722   1.13921365
H    1.74924275   1.40877963   1.31117926
H   -0.26869978   1.41477153   2.60233651
H   -1.30151503   0.39552605  -0.90229503
