17
Energy: 3.462
C   -2.37965122  -0.85293637  -0.34420443
H   -3.07273935  -0.62204071  -1.14889414
H   -2.08740444  -1.89763078  -0.42387653
H   -2.88700260  -0.70660458   0.60584492
C   -1.15024170   0.05574013  -0.42852405
C   -0.47716160  -0.18198461  -1.75866444
O   -0.51120372   0.56075895  -2.69515987
H    0.05014124  -1.15574618  -1.81340546
C   -0.18064411  -0.25124105   0.70915716
H   -0.66206144  -0.11942410   1.68452709
H    0.18630119  -1.28298292   0.65407881
O    0.92546602   0.63984739   0.61282510
C    1.88567794   0.46391212   1.50968940
N    1.83320699  -0.43020766   2.39156165
H    2.62779825  -0.46584453   3.01828360
H    2.68205148   1.20067581   1.34236047
H   -1.45615239   1.10412452  -0.37470248
