17
Energy: 3.687
C    1.22453062   2.05325380   0.76073829
H    2.30958245   2.01138844   0.80242790
H    0.92067676   3.03790364   0.41635388
H    0.82653099   1.90698831   1.76163387
C    0.67617173   0.98708724  -0.18114581
C   -0.81483511   1.13433819  -0.37253216
O   -1.47550947   2.05146430   0.02099505
H   -1.26905768   0.30414788  -0.94563196
C    1.02087879  -0.42352011   0.32338998
H    2.09439894  -0.47869257   0.52663152
H    0.45604555  -0.65725028   1.22945510
O    0.74924022  -1.41400735  -0.66308304
C   -0.28925433  -2.21719540  -0.46398591
N   -1.03939083  -2.14962519   0.54107330
H   -1.78849134  -2.82864562   0.57250928
H   -0.35853847  -2.92120368  -1.30446242
H    1.12318390   1.09950566  -1.17771214
