17
Energy: 3.105
C    1.69066697  -1.61992613   0.45148190
H    2.08264111  -1.26623672   1.40091838
H    1.48313446  -2.68385779   0.53595328
H    2.44591378  -1.47234602  -0.31710743
C    0.41347258  -0.85213369   0.09644994
C   -0.16892363  -1.45682400  -1.15687134
O   -0.21219405  -0.93973413  -2.23495218
H   -0.54902575  -2.48730171  -0.99957534
C    0.69802068   0.64230150  -0.07565184
H    1.30429509   0.99719497   0.76357920
H    1.20690518   0.82186046  -1.02498208
O   -0.49383649   1.41516130  -0.14285537
C   -1.14538205   1.61468525   0.99127014
N   -0.77782088   1.13743730   2.09654445
H   -1.35907203   1.38784362   2.88708287
H   -2.02043398   2.25050678   0.79963912
H   -0.30807253  -0.97770093   0.90965284
