17
Energy: 2.793
C   -1.48659569   0.08673765  -1.23800539
H   -2.41673578   0.61207989  -1.03921033
H   -1.15699085   0.34720548  -2.24114556
H   -1.66564540  -0.98426581  -1.19321406
C   -0.42872017   0.49115522  -0.21757717
C   -0.14945774   1.97038294  -0.25234825
O   -0.75389373   2.77812099  -0.89678878
H    0.68816797   2.27142129   0.40839328
C    0.87790985  -0.29467990  -0.40342771
H    1.21901548  -0.23073774  -1.43887552
H    1.64420272   0.09363321   0.27605588
O    0.70561565  -1.68285994  -0.15461947
C    0.61107235  -2.05603054   1.11422371
N    0.64794636  -1.24595475   2.07532693
H    0.58329115  -1.66313644   2.99550082
H    0.50694732  -3.14821239   1.16384885
H   -0.77871742   0.27641043   0.80076864
