17
Energy: 1.003
C    0.22560231   1.78991781   0.80759498
H   -0.03826681   2.75959842   0.39197060
H    0.29914481   1.86949007   1.88860630
H    1.20175014   1.49768679   0.42796248
C   -0.82545018   0.74458979   0.44858792
C   -0.56001164  -0.58316482   1.16219230
O    0.21683819  -0.70917894   2.07824122
H   -1.34931481  -1.33295268   0.96549061
C   -0.96459899   0.56659057  -1.06863588
H   -1.62032136  -0.28636536  -1.27811162
H   -1.36828784   1.47016851  -1.52926422
O    0.28585473   0.36205570  -1.71771477
C    0.97724137  -0.67794465  -1.30025125
N    0.52544535  -1.47582653  -0.43589041
H    1.12430209  -2.22827487  -0.12692004
H    1.94566510  -0.73277497  -1.80979650
H   -1.80526283   1.07620981   0.81485630
