17
Energy: 3.05
C   -0.87154875   0.63318128  -1.47914822
H   -0.84068233   1.32217141  -2.32034870
H   -0.99921704  -0.37897122  -1.85435922
H   -1.73250443   0.87645011  -0.86298051
C    0.41102809   0.73299338  -0.65333751
C    1.61749204   0.49686863  -1.52528935
O    2.56159975  -0.18662682  -1.25082675
H    1.56541830   1.04090991  -2.48938572
C    0.41662609  -0.21937701   0.54671320
H    0.10031583  -1.21948170   0.24119925
H    1.42305403  -0.25890673   0.97244519
O   -0.44176874   0.24656473   1.58394148
C   -1.61564622  -0.35051812   1.73023523
N   -2.02176248  -1.29174063   1.00270105
H   -2.93240232  -1.66162881   1.24321153
H   -2.14333531   0.10878135   2.57822011
H    0.50651431   1.76016950  -0.27520248
