17
Energy: 2.415
C    1.10593469  -2.11725530  -0.59468305
H    1.53245683  -1.93777417  -1.57797860
H    1.89167100  -2.47780146   0.06402081
H    0.34242342  -2.88776317  -0.68058886
C    0.50698744  -0.82279266  -0.04273585
C   -0.09069761  -1.09796218   1.31383783
O    0.31007772  -0.65882926   2.35225911
H   -0.96406595  -1.78061746   1.27676520
C   -0.58469003  -0.29910586  -0.98415205
H   -0.13771066  -0.05206037  -1.95224348
H   -1.37589131  -1.04272393  -1.10963313
O   -1.23455739   0.85333022  -0.46359475
C   -0.56937589   1.99991742  -0.54267553
N    0.57094060   2.09899378  -1.06089018
H    0.96005455   3.03352447  -1.07214261
H   -1.17976111   2.80085855  -0.10580851
H    1.28440322  -0.06062626   0.05425809
