17
Energy: 3.701
C    0.95037867   0.76249004   2.16915083
H    1.64151021   1.60124971   2.16584186
H    0.35117391   0.80258630   3.07472789
H    1.51680812  -0.16483503   2.17946537
C    0.04359184   0.80366161   0.94421193
C   -0.92869252  -0.35460979   0.94589689
O   -0.89846916  -1.28029141   1.70311197
H   -1.71855657  -0.26851056   0.17510533
C    0.89305940   0.77351922  -0.34031733
H    1.58129708   1.62289283  -0.33451582
H    1.44971684  -0.16624720  -0.39375829
O    0.10997794   0.91823336  -1.51746196
C   -0.25108035  -0.19683726  -2.14286204
N    0.06596194  -1.34325850  -1.74064062
H   -0.26100485  -2.11439237  -2.30770792
H   -0.84114625   0.06527321  -3.03141626
H   -0.54824167   1.72643119   0.93285920
