17
Energy: 3.684
C    1.60467754   1.52161894  -0.24633615
H    1.66698618   2.58761251  -0.45070710
H    1.62865133   1.36675759   0.82921265
H    2.46832845   1.03136347  -0.68885603
C    0.31705378   0.94036118  -0.83152921
C   -0.87153472   1.65639387  -0.23580792
O   -1.70754237   2.24195225  -0.86161775
H   -0.90762297   1.59649558   0.86734336
C    0.20525727  -0.55762994  -0.53109431
H   -0.70828507  -0.98033701  -0.96412481
H    1.05837927  -1.10022783  -0.95377548
O    0.18496840  -0.75815654   0.87847392
C    0.14211049  -2.02235310   1.27565566
N    0.12864713  -2.98581654   0.46965114
H    0.09593374  -3.90494353   0.89300592
H    0.12402084  -2.06036213   2.37325778
H    0.30056778   1.07072786  -1.91760799
