17
Energy: 3.799
C    1.64618879   1.26655739   0.63550320
H    1.12642876   0.98715056   1.54784558
H    2.60720695   0.75996352   0.60471164
H    1.80911759   2.34074305   0.64870581
C    0.79829431   0.88645684  -0.57440001
C   -0.45776724   1.72467181  -0.65408230
O   -0.66293233   2.73187340  -0.04349600
H   -1.20272112   1.32443598  -1.37108181
C    0.42988409  -0.59728121  -0.57785172
H   -0.09354896  -0.88085554  -1.49845454
H    1.32251091  -1.22612381  -0.49248609
O   -0.42390014  -0.85283192   0.53309579
C   -0.81610724  -2.11007036   0.67840451
N   -0.46422718  -3.02455712  -0.10876459
H   -0.82862397  -3.94439221   0.10674410
H   -1.46561200  -2.19149205   1.55990937
H    1.35609873   1.08797504  -1.49813274
