17
Energy: 3.528
C   -1.30117324   1.91471454   0.82681990
H   -2.32372989   1.57855573   0.97450713
H   -1.04192195   2.61981740   1.61173352
H   -1.23534532   2.43004580  -0.12816434
C   -0.33336272   0.73699970   0.85545046
C    1.10669493   1.19503555   0.84133893
O    1.48178279   2.31546605   1.03339081
H    1.81848965   0.37136306   0.64416589
C   -0.58955777  -0.23094778  -0.30142687
H   -1.64955104  -0.50350854  -0.35008131
H   -0.31712682   0.21620260  -1.26395411
O    0.18263142  -1.41012486  -0.09862107
C    0.08319589  -2.33287624  -1.04682340
N   -0.64566415  -2.18723663  -2.05945105
H   -0.63804461  -2.95982841  -2.71382485
H    0.71860372  -3.19090620  -0.78968533
H   -0.45509064   0.17427461   1.79020323
