17
Energy: 3.727
C   -1.73412068  -0.07302852   0.13758469
H   -1.27879833  -0.42627716   1.05917116
H   -2.09750258   0.93871070   0.29361808
H   -2.57062437  -0.72572705  -0.09753776
C   -0.71586608  -0.10708246  -0.99696609
C   -0.21815052  -1.51133186  -1.25083069
O   -0.67828705  -2.50936739  -0.77890657
H    0.64318008  -1.54868789  -1.94812267
C    0.47847834   0.82694548  -0.75016199
H    1.13802269   0.83525827  -1.62340741
H    0.12718163   1.83825900  -0.53008021
O    1.27361371   0.37241556   0.34065952
C    1.16009144   1.01733816   1.49461653
N    0.41637636   2.01531483   1.66797771
H    0.44019743   2.41571915   2.59681577
H    1.82069126   0.54158774   2.23184574
H   -1.18970021   0.22507783  -1.92977870
