17
Energy: 3.84
C   -0.48798672   0.66995859  -1.44730193
H   -0.95526758   0.47017683  -2.40878647
H   -1.11970044   1.34671251  -0.87690244
H    0.46712913   1.15773010  -1.62387286
C   -0.27416614  -0.63591788  -0.68035447
C   -1.60202619  -1.33113203  -0.52154269
O   -1.85603390  -2.43833617  -0.89820627
H   -2.36345272  -0.70527122  -0.01561480
C    0.30600301  -0.37453556   0.71936373
H   -0.36515064   0.26795266   1.29637497
H    0.46380738  -1.32409021   1.23878384
O    1.58114079   0.25145124   0.64118790
C    1.64901028   1.54588074   0.92262754
N    0.65828527   2.24496070   1.25376464
H    0.86242613   3.21508471   1.45609068
H    2.69277718   1.87453866   0.82633904
H    0.40891698  -1.28776244  -1.23321344
