17
Energy: 2.142
C    0.97904754  -0.13941998   1.83022388
H    1.07308573  -1.01082570   2.47362541
H    1.94944395   0.34667818   1.75484639
H    0.28090849   0.55695751   2.28728757
C    0.47719810  -0.54375083   0.44286661
C    1.43028496  -1.51782139  -0.19293531
O    1.88987751  -1.43591115  -1.29615423
H    1.69207397  -2.36275395   0.47514575
C    0.25861363   0.66767481  -0.46841919
H    1.18350022   1.23850026  -0.57283351
H   -0.07464209   0.31751152  -1.45016826
O   -0.69307926   1.58642024   0.05369625
C   -1.96545857   1.21908135   0.02609048
N   -2.35532389   0.09630518  -0.38495017
H   -3.35765890  -0.04583869  -0.36812196
H   -2.58710039   2.03999863   0.41030131
H   -0.48399537  -1.06304509   0.54456690
