17
Energy: 2.954
C    0.63762789   1.70592659   0.66309994
H    1.43388019   2.37530367   0.34641455
H   -0.24386833   2.29824757   0.89734609
H    0.94855822   1.17237669   1.55705037
C    0.31351386   0.69005571  -0.43640330
C   -0.15137875   1.42637113  -1.66787606
O   -1.15891697   1.21618458  -2.28016772
H    0.54680399   2.22988931  -1.97436615
C   -0.70656400  -0.36659489   0.01244185
H   -1.17187084  -0.06783033   0.95555946
H   -1.46854499  -0.48801698  -0.76269680
O   -0.13058293  -1.65963869   0.16739864
C    0.52707940  -1.90811066   1.28875180
N    0.69900611  -1.06119763   2.20301170
H    1.20438113  -1.40058159   3.01231799
H    0.87438139  -2.95051528   1.27809374
H    1.23999768   0.17478977  -0.71850652
