17
Energy: 3.356
C   -1.70305288  -0.32256246   1.43741909
H   -1.88591503   0.73886567   1.58885905
H   -2.33411638  -0.67137411   0.62482400
H   -1.97405309  -0.85710737   2.34467513
C   -0.23463524  -0.56380283   1.08352981
C    0.65996007  -0.11725073   2.21059021
O    1.65536685   0.53864892   2.10277516
H    0.30806351  -0.46704105   3.20181954
C    0.15231914   0.10627858  -0.23205767
H   -0.17006952   1.15212040  -0.25690208
H    1.23829794   0.08979421  -0.37217502
O   -0.47325980  -0.60453641  -1.29681877
C   -0.33700696  -0.07682078  -2.50470688
N    0.29416120   0.98832500  -2.71628452
H    0.32448484   1.29015338  -3.68225592
H   -0.85394148  -0.71053372  -3.23914876
H   -0.07804549  -1.64474373   0.97308552
