17
Energy: 3.704
C   -1.23790643  -1.92953052   0.94549469
H   -1.20495166  -2.36135866  -0.05105781
H   -0.72090615  -2.58955026   1.63714743
H   -2.27924245  -1.85048074   1.24592660
C   -0.59346603  -0.54719823   0.93213599
C   -1.29442532   0.36507219  -0.05270329
O   -2.05034233   0.00377066  -0.90669466
H   -1.07509115   1.43871775   0.10420043
C    0.89682237  -0.67442175   0.56344414
H    1.39138894  -1.32775027   1.28659928
H    0.98902300  -1.08382847  -0.44671004
O    1.59226310   0.56218398   0.63083887
C    1.62104771   1.29033093  -0.47926808
N    1.05931684   0.93039965  -1.54304373
H    1.15198117   1.56056865  -2.32869106
H    2.19915704   2.20617540  -0.29746588
H   -0.65645910  -0.08153261   1.92201956
