17
Energy: 3.528
C   -0.39379532  -1.12622549   2.14610233
H   -0.85047088  -0.24154070   2.58276290
H   -1.16436833  -1.87442227   1.98218573
H    0.33515256  -1.51534858   2.85156105
C    0.30039022  -0.76674227   0.83714470
C    1.49319334   0.13287836   1.06449876
O    2.00454747   0.35484864   2.12385073
H    1.88097730   0.57826116   0.12899021
C   -0.66789207  -0.11776961  -0.15390907
H   -1.57414571  -0.72363692  -0.26258931
H   -0.97353253   0.87952006   0.18179624
O   -0.02950930  -0.00888614  -1.42217059
C   -0.75612725   0.54203642  -2.38600422
N   -1.93304360   0.94090518  -2.20257594
H   -2.38560668   1.34397337  -3.01367754
H   -0.16756884   0.57744445  -3.31250686
H    0.69991515  -1.67292983   0.36339639
