17
Energy: 3.8
C    0.17779871  -0.82516813   2.01594867
H    0.60312961  -1.82503171   2.03795783
H    0.27160525  -0.37558867   3.00068948
H   -0.87810075  -0.89364082   1.76912527
C    0.89083220   0.04069147   0.98198760
C    0.45365460   1.48532241   1.07492653
O   -0.14890193   1.97377020   1.98469396
H    0.76603969   2.09099402   0.20034525
C    0.68091348  -0.47039055  -0.44349059
H    1.27521635   0.09845221  -1.16803190
H    0.96515667  -1.52454553  -0.53063560
O   -0.69794182  -0.33392816  -0.77321035
C   -1.03479422  -0.70642837  -1.99929705
N   -0.19896640  -1.15186897  -2.82557106
H   -0.57720943  -1.40165147  -3.73103440
H   -2.11311976  -0.55842209  -2.14366647
H    1.97138238   0.03811885   1.17551250
