17
Energy: 3.552
C    0.16136709   1.34745370  -1.11987408
H    0.54494566   1.76604874  -0.19198191
H    1.00472562   1.04606659  -1.73561157
H   -0.40129880   2.11834737  -1.64067751
C   -0.73272361   0.14030129  -0.83466880
C   -1.84416277   0.55177657   0.09913473
O   -3.01353674   0.49793635  -0.15291325
H   -1.47877683   0.92394428   1.07463161
C    0.06308085  -1.01351396  -0.20089836
H   -0.60664676  -1.85107681   0.01532592
H    0.85735788  -1.33046658  -0.88239008
O    0.65127270  -0.64023934   1.04078163
C    1.95841188  -0.41226055   1.05739302
N    2.69886972  -0.50598360   0.04654354
H    3.67965157  -0.31883763   0.20971654
H    2.25845396  -0.14740170   2.08051150
H   -1.17024650  -0.23015203  -1.76644537
