24
Energy: 2.36
C    0.58508070  -2.09034556   2.13972487
C    0.08455961  -0.66112969   2.31536008
C   -0.94065152  -0.24448696   1.25976478
H   -1.35078023   0.72932964   1.53435797
H   -1.75870441  -0.96838351   1.26103424
C   -0.40817357  -0.12593239  -0.17360216
N    0.45119000   1.03617201  -0.28641954
C    1.85099792   0.91826235   0.02639353
C    1.40215384   1.09966214  -1.36931926
H    1.50396548   2.06757992  -1.84265783
H    1.49646043   0.25102246  -2.04052655
H    2.27542609   1.75276388   0.56730397
H    2.25306970  -0.05202350   0.29892118
C   -1.60591383   0.06182613  -1.12439341
O   -1.25110009   0.13217457  -2.48132086
H   -0.72473629   0.92895363  -2.61099981
H   -2.15503699   0.96328741  -0.82085237
H   -2.27081914  -0.80067423  -1.03981633
H    0.11979832  -1.04981724  -0.46689163
H   -0.39319791  -0.57811933   3.29455869
H    0.92531577   0.03286460   2.30425244
H   -0.25007658  -2.78760551   2.13627193
H    1.25261054  -2.35841982   2.95563129
H    1.13036264  -2.20940963   1.20667081
