24
Energy: 0.0
C    3.17516212  -0.17319018  -1.66492503
C    2.01431061   0.60483376  -1.05762431
C    0.98567726  -0.33194834  -0.43070379
H    1.47072287  -0.93358436   0.34179934
H    0.59577489  -1.01326594  -1.18880782
C   -0.19379319   0.41263484   0.20208701
N   -0.90327066  -0.49333178   1.08712904
C   -0.38605625  -0.71418273   2.41091415
C   -1.62787250   0.05981801   2.20156851
H   -2.58698129  -0.39503200   2.40689585
H   -1.59096752   1.13247957   2.36572079
H   -0.44133259  -1.73308698   2.76801583
H    0.50277380  -0.17273958   2.71896442
C   -1.21171989   0.86999012  -0.85355834
O   -1.76547956  -0.21834685  -1.54196643
H   -1.97785605  -0.88663706  -0.87624819
H   -0.73621105   1.50856956  -1.60024423
H   -2.00475535   1.44971735  -0.35424003
H    0.17830288   1.30203417   0.74440363
H    2.39517127   1.29018902  -0.29564430
H    1.53880437   1.20459003  -1.83558947
H    3.90382530   0.50565942  -2.10175485
H    2.81674251  -0.84116461  -2.44457001
H    3.67449636  -0.77084344  -0.90521072
