24
Energy: 1.781
C   -2.74809749   2.03615304  -0.50453987
C   -1.59395286   1.36090815   0.22605043
C   -0.92273361   0.30803143  -0.65126253
H   -0.48954404   0.78802459  -1.52993785
H   -1.67043526  -0.41224666  -0.99114796
C    0.19107765  -0.46897515   0.05636400
N    1.36948486   0.35738870   0.18788743
C    1.54851991   1.14660223   1.37738396
C    2.39317031  -0.03819764   1.12014898
H    3.40914156   0.08792025   0.77403113
H    2.23214194  -0.91656013   1.73836224
H    1.95050953   2.13773772   1.22051550
H    0.81064472   1.07646274   2.17097284
C    0.56770644  -1.70914630  -0.77209069
O   -0.49859586  -2.61122499  -0.92228899
H   -0.79828689  -2.88584144  -0.04792471
H    1.43511367  -2.20506812  -0.31234953
H    0.84563475  -1.39839539  -1.78055727
H   -0.17667790  -0.81350909   1.04632707
H   -0.85971051   2.11463873   0.51454878
H   -1.97122296   0.89085458   1.13858925
H   -3.21636835   2.78602535   0.12903129
H   -3.50217750   1.30447346  -0.78657681
H   -2.39087124   2.52405874  -1.40833814
