24
Energy: 1.396
C   -2.08903642  -1.31731228  -0.33324720
C   -1.13493196  -1.03681577  -1.48770931
C    0.33891839  -1.14547283  -1.09197918
H    0.94283798  -1.21527735  -2.00012635
H    0.48612718  -2.06959045  -0.52556749
C    0.91312133   0.01578519  -0.26676797
N    0.25832395   0.12341123   1.02173333
C    0.62876499  -0.79394392   2.06545753
C    1.01608073   0.63065060   2.13616521
H    0.48294525   1.30150315   2.79575972
H    2.06186554   0.88086397   1.98545781
H   -0.18628973  -1.16187036   2.67298943
H    1.40893256  -1.52148772   1.86595941
C    0.78532171   1.38652623  -0.95387378
O   -0.52078388   1.89579235  -0.93401950
H   -0.89137413   1.67256681  -0.06942109
H    1.08633009   1.31555278  -2.00189092
H    1.46442147   2.09158408  -0.44623140
H    1.99643634  -0.18482561  -0.14272785
H   -1.32169104  -1.76451756  -2.28199391
H   -1.33148551  -0.04517255  -1.89302834
H   -1.92445770  -2.31814102   0.06236278
H   -3.11972390  -1.24886526  -0.67409351
H   -1.93862465  -0.60211484   0.46934734
