24
Energy: 0.553
C    1.05764643   0.51796947  -2.90402175
C   -0.27330649  -0.05832108  -2.43292226
C   -0.18662620  -0.71996729  -1.05758987
H    0.67702625  -1.38855366  -1.03445529
H   -1.07933981  -1.32398490  -0.88518393
C   -0.06786824   0.27647672   0.10080487
N    0.44590255  -0.41723254   1.26837582
C    1.86224730  -0.64981279   1.36370399
C    1.19501603   0.33556824   2.24052218
H    0.99789802   0.08908433   3.27465743
H    1.38011686   1.38909650   2.05383368
H    2.14981994  -1.61364194   1.76014786
H    2.50509142  -0.27358684   0.57428546
C   -1.44056334   0.83889504   0.49981341
O   -2.30139696  -0.17179809   0.95052510
H   -1.78087157  -0.73409744   1.54034677
H   -1.92864959   1.31158818  -0.35481075
H   -1.29996809   1.59893132   1.28518828
H    0.58704448   1.11760860  -0.18628136
H   -1.02722561   0.73076237  -2.41402497
H   -0.60245118  -0.80902181  -3.15439130
H    1.40364258   1.30829957  -2.24189517
H    0.95530630   0.93784865  -3.90204072
H    1.81818062  -0.25970140  -2.93630120
