24
Energy: 2.232
C    1.69286400   2.84468110  -0.38845755
C    1.35976827   1.36331567  -0.25981376
C   -0.12366409   1.10551500  -0.51254890
H   -0.35638244   1.29779875  -1.56191190
H   -0.71150730   1.79652020   0.09755654
C   -0.56401363  -0.32316454  -0.17070661
N   -0.20917304  -0.63036453   1.19601203
C   -1.07973910  -0.17884671   2.24880606
C   -0.98136107  -1.61373944   1.90672744
H   -0.41414869  -2.28091128   2.54014042
H   -1.82979168  -2.07490895   1.40916886
H   -0.58407876   0.19917979   3.13174428
H   -1.99431341   0.34376054   1.98442201
C    0.08856224  -1.37329619  -1.08325563
O   -0.18260632  -1.16358283  -2.44562222
H   -1.13788393  -1.16378925  -2.57561697
H   -0.24725006  -2.37289874  -0.76825104
H    1.17244969  -1.33183895  -0.97703343
H   -1.66456872  -0.38395790  -0.32179196
H    1.95496063   0.80038760  -0.97910416
H    1.61187638   1.01009029   0.74070811
H    1.13395862   3.42894836   0.33989040
H    1.44190086   3.20765546  -1.38313084
H    2.75395740   3.01290811  -0.22015140
