24
Energy: 1.922
C    1.25466184   2.36024096   1.98998171
C    0.27057608   1.45073628   1.26398801
C    0.96027366   0.19367671   0.73690708
H    1.30699480  -0.42733028   1.56719369
H    1.84374397   0.49572113   0.16845926
C    0.07927833  -0.65022632  -0.19506529
N   -0.28538459   0.14710666  -1.34621489
C    0.64358227   0.22876548  -2.44262746
C   -0.61910244  -0.52866976  -2.57176716
H   -1.44604798  -0.10558213  -3.12435455
H   -0.55906864  -1.61204674  -2.60383234
H    0.73568909   1.20309688  -2.90172778
H    1.56966800  -0.33546517  -2.38694687
C   -1.22227480  -1.13162476   0.46875800
O   -1.01043331  -1.90025721   1.62489713
H   -0.57842598  -1.34635393   2.28442995
H   -1.75637319  -1.78462537  -0.22595252
H   -1.86041751  -0.26317584   0.67519133
H    0.65990410  -1.54692373  -0.48787239
H   -0.53513712   1.18203694   1.95011710
H   -0.17156698   1.98019741   0.41922256
H    2.04820305   2.67857335   1.31763418
H    1.70902048   1.84110008   2.83201174
H    0.74910849   3.24621417   2.36660945
