24
Energy: 1.79
C    2.59558058  -1.23087200   1.19644480
C    1.21503368  -1.26654162   1.84307319
C    0.34259051  -0.07069272   1.45949830
H    0.91464766   0.84695320   1.61569927
H   -0.52868394  -0.02622412   2.11596879
C   -0.15485129  -0.08588569   0.01015905
N   -0.63559448   1.24191189  -0.32969387
C    0.33603013   2.26297753  -0.62162211
C   -0.50965363   1.69479205  -1.69223078
H   -1.34532227   2.26704175  -2.07321395
H   -0.03406352   1.04404559  -2.42043061
H    0.11266493   3.24294202  -0.22394742
H    1.38910587   1.99932620  -0.61546815
C   -1.32086061  -1.07079057  -0.16568564
O   -1.75345737  -1.18073025  -1.49830387
H   -2.07158438  -0.31477085  -1.77760951
H   -2.14755760  -0.75423666   0.48490585
H   -1.00680000  -2.07502344   0.12426821
H    0.66291810  -0.39127330  -0.66562696
H    0.71098217  -2.19609828   1.57423545
H    1.33818109  -1.26256104   2.92840386
H    3.19957709  -2.06251107   1.55168529
H    3.10870255  -0.30418763   1.44580779
H    2.52615588  -1.30573169   0.11422641
