24
Energy: 1.806
C   -1.30729951   2.20773459  -2.55242160
C   -0.27532907   1.22334588  -2.01412960
C   -0.65903707   0.71741711  -0.62506487
H   -1.64522686   0.25086202  -0.69462216
H   -0.73544902   1.56640492   0.05918559
C    0.35017579  -0.29721605  -0.06928923
N   -0.10134341  -1.15030367   1.01954148
C   -1.15804900  -0.77614975   1.92025247
C   -1.32890965  -1.89351391   0.96490774
H   -1.26068653  -2.91435850   1.31707991
H   -2.00113563  -1.75872602   0.12457601
H   -0.96845535  -0.99244025   2.96354196
H   -1.71518826   0.13683976   1.74832468
C    1.61219164   0.39872137   0.46796016
O    2.56666865  -0.53296498   0.89842273
H    2.08461835  -1.20420552   1.40161109
H    1.32200736   1.06193832   1.29851030
H    2.08969304   0.99819438  -0.30871399
H    0.65187474  -0.98186728  -0.87313232
H   -0.19329050   0.37469836  -2.69702550
H    0.69945308   1.71141359  -1.97282525
H   -1.02233473   2.55567588  -3.54224601
H   -1.38970605   3.07140545  -1.89609082
H   -2.28601072   1.73744408  -2.62341268
