24
Energy: 2.63
C   -2.22619484  -0.20023323   1.29858694
C   -1.38361466   1.06834420   1.27104768
C   -0.66512047   1.28132761  -0.06326835
H   -0.23860977   2.28852816  -0.08265326
H   -1.40403327   1.22805923  -0.86683285
C    0.46092542   0.29034698  -0.40375916
N   -0.07913544  -1.02826675  -0.65332019
C   -0.62910933  -1.30695312  -1.95353328
C    0.64915221  -1.91221687  -1.52407834
H    0.67719217  -2.94778640  -1.21563561
H    1.56183629  -1.55264589  -1.98917247
H   -1.53161697  -1.90194801  -1.95789157
H   -0.59260353  -0.53277502  -2.71403138
C    1.51765158   0.15794910   0.70591058
O    2.13789315   1.37490557   1.03423204
H    1.46888370   1.97427772   1.38307641
H    2.31933768  -0.49730479   0.35610241
H    1.06087375  -0.31068380   1.58667918
H    0.97330544   0.68634500  -1.30342734
H   -2.03281505   1.93209743   1.44181582
H   -0.66321504   1.04099470   2.09083640
H   -1.60126249  -1.06914212   1.11677425
H   -2.99077340  -0.16159007   0.52600536
H   -2.71720766  -0.30638036   2.26359118
