24
Energy: 1.248
C    0.19114196  -3.12919519  -1.67708727
C    0.23858081  -1.60733518  -1.62331774
C   -0.27827785  -1.07992617  -0.28739288
H    0.33802440  -1.47538410   0.52226379
H   -1.29594809  -1.43911909  -0.12667295
C   -0.26633487   0.45617184  -0.19709829
N    0.69990107   0.86988435   0.80314129
C    2.08835989   0.95222575   0.43606620
C    1.29738537   2.17479078   0.69064134
H    1.42196988   2.71209486   1.62056173
H    1.03575233   2.79661636  -0.16011114
H    2.78820013   0.59996299   1.18101061
H    2.37008455   0.73602844  -0.58907946
C   -1.62971361   1.00168223   0.25241710
O   -2.02285348   0.46768295   1.48772966
H   -1.25257903   0.51436856   2.06878124
H   -2.40379137   0.73051523  -0.46925108
H   -1.57520064   2.10072427   0.31001275
H   -0.03385140   0.88952565  -1.18715039
H    1.26777439  -1.27372940  -1.77654509
H   -0.36894302  -1.19751390  -2.43414748
H    0.80662565  -3.55738579  -0.88911451
H    0.55786183  -3.49069824  -2.63502456
H   -0.82892766  -3.48207984  -1.54370012
