24
Energy: 2.097
C   -2.35367470  -0.61708569   2.52044271
C   -1.80663631  -0.55294287   1.09995658
C   -0.35618480  -0.07808274   1.08505931
H    0.25355111  -0.75815051   1.68646242
H   -0.28420030   0.91250976   1.53674058
C    0.25075174  -0.01098956  -0.31931579
N    1.66120983   0.28862482  -0.18989534
C    2.56996276  -0.79161701   0.08740457
C    2.55713607  -0.13056662  -1.23490934
H    3.33479724   0.57477259  -1.49161690
H    2.15766505  -0.68946550  -2.07649679
H    3.35720825  -0.56768272   0.79316821
H    2.17735155  -1.80219508   0.15210559
C   -0.37587047   1.08748433  -1.19365641
O   -1.66327159   0.78159685  -1.66767869
H   -1.62497219  -0.04428181  -2.16313970
H    0.30393916   1.28890595  -2.03524586
H   -0.47902548   2.00597608  -0.61384884
H    0.09170240  -0.98725243  -0.82555113
H   -1.86711924  -1.54555532   0.64510739
H   -2.41721174   0.12574073   0.50413909
H   -2.32117587   0.36572976   2.98497320
H   -1.76547092  -1.30169205   3.12858884
H   -3.38541348  -0.96075945   2.51654584
