24
Energy: 2.342
C   -2.10994888  -1.23750976   1.93123543
C   -0.64594538  -0.94755979   2.23859048
C   -0.09506454   0.26570613   1.48873444
H    0.91278503   0.47332110   1.85409762
H   -0.70748997   1.14095382   1.71279053
C   -0.01443311   0.07532991  -0.03427468
N    1.24469900   0.61474723  -0.51855121
C    2.44315768  -0.15301675  -0.30333409
C    1.87075987  -0.00629934  -1.65815660
H    2.33466977   0.67091448  -2.36326578
H    1.40127806  -0.87771875  -2.10565718
H    3.31729542   0.41942922  -0.02609430
H    2.36320423  -1.12152207   0.17998665
C   -1.14851883   0.82389931  -0.75274594
O   -1.18894670   0.57004911  -2.13467614
H   -0.36297538   0.88615721  -2.51773526
H   -1.02983763   1.89894180  -0.56002685
H   -2.11440458   0.49872910  -0.36361574
H   -0.09701249  -0.99919858  -0.27880489
H   -0.53956904  -0.76387249   3.31040110
H   -0.04442608  -1.82726826   1.99648356
H   -2.24486475  -1.50212953   0.88575087
H   -2.72357648  -0.36632403   2.14994376
H   -2.46435427  -2.06711981   2.53921013
