24
Energy: 0.303
C    2.41270345  -0.89586918   2.36342447
C    1.81461193  -0.21240571   1.13977023
C    0.55022198  -0.92660307   0.67082046
H   -0.20790977  -0.87845146   1.45376629
H    0.78022361  -1.97916962   0.49110206
C   -0.05015232  -0.35098592  -0.61561267
N   -0.52779546   1.00008903  -0.38952850
C    0.35160905   2.11518996  -0.61611362
C   -0.77234610   1.84096467  -1.53453914
H   -1.66822211   2.44443990  -1.48585360
H   -0.53654821   1.46020113  -2.52349879
H    0.27471133   2.92060129   0.10128592
H    1.35645208   1.92362164  -0.97793150
C   -1.27114351  -1.18162019  -1.04454341
O   -2.28958279  -1.14578447  -0.08188399
H   -2.36965022  -0.22570852   0.20313382
H   -0.99438257  -2.23051603  -1.17240657
H   -1.64589173  -0.80069380  -2.00826754
H    0.70228429  -0.38880244  -1.42560552
H    1.57856580   0.82347141   1.38635717
H    2.55166535  -0.20860374   0.33218757
H    3.30874918  -0.37486027   2.69283930
H    2.67853873  -1.92582747   2.13521788
H    1.69729657  -0.90140615   3.18246475
