24
Energy: 0.563
C    1.05650529  -3.13937694  -0.36367528
C    0.93963281  -1.62966201  -0.19421646
C   -0.37052124  -1.25190031   0.49249839
H   -0.40357855  -1.69349985   1.49097744
H   -1.20233393  -1.66952027  -0.08244032
C   -0.59734761   0.25897467   0.62799723
N   -0.52632393   0.88967558  -0.67547241
C   -1.65540257   0.78458400  -1.56000989
C   -1.31465853   2.07017442  -0.91499321
H   -0.82804590   2.84754560  -1.48783321
H   -1.96686526   2.43076873  -0.12536774
H   -1.41609826   0.62519207  -2.60217788
H   -2.54212568   0.26332829  -1.21392430
C    0.43713867   0.96150168   1.52380150
O    1.70115998   1.06607752   0.92717080
H    1.54996300   1.27606557  -0.00441408
H    0.56819401   0.41026277   2.45794597
H    0.05711514   1.96785585   1.76660518
H   -1.59111896   0.40856582   1.09449273
H    1.77918010  -1.26314325   0.39580516
H    0.97734036  -1.14699419  -1.17204725
H    1.99354423  -3.39557725  -0.85200185
H    0.23798661  -3.52400949  -0.96933021
H    1.02765077  -3.63681311   0.60365083
