24
Energy: 1.011
C    1.42919905   0.47257085   2.64821234
C    0.01289654   0.72892958   2.14507666
C   -0.52251075  -0.39223148   1.25495805
H   -1.58701587  -0.22999888   1.07819651
H   -0.41144476  -1.34490323   1.77731786
C    0.15626043  -0.52220048  -0.11338075
N   -0.13673700   0.63953796  -0.93185340
C    0.74649560   1.77430853  -0.91258559
C    0.68179305   0.88717078  -2.09202909
H    0.14987546   1.20527687  -2.97805830
H    1.53006089   0.23687808  -2.28317302
H    0.26127927   2.74044010  -0.94015535
H    1.64209758   1.73409241  -0.30151112
C   -0.41518897  -1.73827113  -0.86208817
O   -1.78996417  -1.60548763  -1.10292614
H   -1.93074345  -0.70222642  -1.41670115
H   -0.28506316  -2.64725018  -0.27053599
H    0.12635899  -1.86243022  -1.81379584
H    1.24290112  -0.67485210   0.01081056
H   -0.65090585   0.81889349   3.00808184
H   -0.02426921   1.67526652   1.60439051
H    2.14141985   0.43029705   1.82755246
H    1.47574253  -0.47172840   3.18673616
H    1.74015369   1.26745000   3.32256798
