24
Energy: 2.025
C   -2.98966293  -1.31303562  -1.16817870
C   -1.50918320  -1.22183905  -0.81838138
C   -1.13300305   0.18136664  -0.34853122
H   -1.68071273   0.41431172   0.56682716
H   -1.43290125   0.89562075  -1.12092067
C    0.36422527   0.35373935  -0.06747839
N    0.73457589  -0.43954997   1.08529058
C    1.23695747  -1.77393301   0.88727050
C    2.13315477  -0.68564759   1.32771074
H    2.44038061  -0.62630355   2.36225131
H    2.86251021  -0.31255854   0.61572738
H    0.89416837  -2.50969350   1.60163645
H    1.35477905  -2.14576692  -0.12580357
C    0.69239915   1.82441760   0.25053046
O    0.60416082   2.67167418  -0.86594684
H   -0.30657158   2.67994949  -1.18037908
H    1.72785219   1.89907043   0.59060344
H    0.03928779   2.16752091   1.06432361
H    0.94035697   0.06576475  -0.96746426
H   -1.27988090  -1.93884560  -0.02978211
H   -0.91377681  -1.48244703  -1.69714017
H   -3.60072567  -1.06177480  -0.30416358
H   -3.24470369  -2.32077746  -1.48728716
H   -3.23769284  -0.62572066  -1.97465349
