24
Energy: 1.203
C   -3.22840789  -1.82779789   0.28564621
C   -1.78473455  -1.63683332  -0.16428028
C   -1.25095422  -0.26869240   0.25206479
H   -1.36826282  -0.15834898   1.33297593
H   -1.83757821   0.52061245  -0.22161814
C    0.22625500  -0.05481380  -0.09035691
N    0.69134271   1.14271082   0.58656891
C    0.97324226   1.06521098   1.99589767
C    2.06685966   1.20913646   1.01241344
H    2.54852309   2.16996612   0.88637870
H    2.71084920   0.35127835   0.84248548
H    0.65899271   1.91945787   2.57885719
H    0.86811823   0.10881368   2.49857344
C    0.42950603   0.14685736  -1.60032221
O    1.77882840   0.30535197  -1.95867271
H    2.11110721   1.09434995  -1.51561775
H   -0.16002719   1.01715961  -1.91948017
H    0.08483036  -0.73489473  -2.14278760
H    0.80733102  -0.94139927   0.22562869
H   -1.16155440  -2.41822997   0.27704271
H   -1.73133324  -1.74257406  -1.24877006
H   -3.86749804  -1.06609315  -0.15491961
H   -3.30527127  -1.75365145   1.36820377
H   -3.59759742  -2.80421654  -0.01864108
