24
Energy: 2.507
C   -0.66213262   2.47323876  -2.35915122
C   -0.15883886   1.90043035  -1.03963172
C   -0.31044042   0.37969872  -0.99453836
H    0.32409370  -0.06229245  -1.76587399
H   -1.33954852   0.09737707  -1.23146952
C    0.09142233  -0.22903847   0.35870878
N    0.68880911  -1.52848267   0.13051778
C    2.09206413  -1.58603186  -0.18647139
C    1.59003028  -2.05079932   1.12373562
H    1.50085016  -3.10980202   1.32016862
H    1.81329450  -1.44463209   1.99609422
H    2.36841757  -2.30824529  -0.94191755
H    2.65949709  -0.66084303  -0.21419406
C   -1.11897666  -0.44593251   1.28282407
O   -1.82210387   0.73089246   1.58455315
H   -2.19698491   1.07860456   0.76765874
H   -0.77701757  -0.84168809   2.24231969
H   -1.77641539  -1.19440233   0.81887878
H    0.79626286   0.45731695   0.86426933
H    0.89610666   2.15683574  -0.91535212
H   -0.70319361   2.35970584  -0.21170663
H   -0.11428957   2.04276762  -3.19463567
H   -0.53105561   3.55250406  -2.38167316
H   -1.71917054   2.25372854  -2.49612559
