24
Energy: 1.644
C   -0.89110860  -2.03259621   2.90245752
C   -0.12249672  -1.07695533   1.99760682
C   -0.67964697  -1.09377561   0.57600523
H   -1.70371129  -0.71660782   0.58517930
H   -0.70263883  -2.12627778   0.21986387
C    0.12523520  -0.26103597  -0.42786425
N   -0.06786217   1.15217347  -0.17013006
C    0.76840714   1.81699657   0.79406504
C    0.91831010   2.08948678  -0.65005687
H    0.52375122   3.00783239  -1.06506386
H    1.81031118   1.71221954  -1.14133096
H    0.26390689   2.53406416   1.42665363
H    1.55897871   1.25607671   1.28165203
C   -0.38267482  -0.56957766  -1.84913957
O    0.32666365   0.09222612  -2.86429381
H    0.18016647   1.03922397  -2.76193895
H   -1.45131624  -0.32113422  -1.89840352
H   -0.25907603  -1.63564663  -2.05228005
H    1.19401567  -0.53914454  -0.37124233
H   -0.18929223  -0.06773335   2.40498057
H    0.93091355  -1.36774072   1.97903228
H   -0.49124341  -2.00603869   3.91339046
H   -0.81914864  -3.05274029   2.53141771
H   -1.94225022  -1.75625494   2.94122572
