24
Energy: 1.034
C   -0.43929999  -2.39687942  -1.91918434
C   -0.33230095  -2.39618250  -0.39908791
C   -0.72156273  -1.06326881   0.23882825
H   -0.72634184  -1.18459417   1.32441576
H   -1.73360456  -0.78988687  -0.06489077
C    0.22599157   0.09590143  -0.10630628
N    0.43256568   0.90915497   1.07957419
C    1.38873467   0.46896689   2.05997437
C    1.66488422   1.64252491   1.20443379
H    1.57580583   2.63933457   1.61370112
H    2.41460140   1.53831625   0.42590670
H    1.09833345   0.61304923   3.09142002
H    1.94667415  -0.44212119   1.86924613
C   -0.37828204   1.03219050  -1.16412112
O   -1.58462573   1.59440503  -0.72193787
H   -1.43888979   1.87978941   0.19004184
H   -0.60501685   0.48848077  -2.08236687
H    0.35066264   1.82559396  -1.39605347
H    1.18372618  -0.30152210  -0.48862121
H   -0.99210424  -3.16959646   0.00097890
H    0.68924667  -2.65480713  -0.10747673
H    0.27915971  -1.71135664  -2.36214791
H   -1.43819952  -2.09838882  -2.22848602
H   -0.24193734  -3.39291591  -2.30992562
