24
Energy: 2.129
C   -1.00358322  -1.99227374  -1.61959574
C   -1.85785224  -0.91412665  -0.96265184
C   -1.35305123  -0.54355248   0.43463890
H   -0.90158465  -1.42240899   0.89744161
H   -2.19555126  -0.23672813   1.05828735
C   -0.33345653   0.60277296   0.48311763
N    0.79049345   0.36299931  -0.40321944
C    0.78985211   0.94317604  -1.71986610
C    1.68919768   1.45972735  -0.66936031
H    2.73994505   1.20477562  -0.68591409
H    1.46782107   2.43587753  -0.24919227
H    1.18535152   0.31943148  -2.50934792
H   -0.04791240   1.56699789  -2.01518347
C    0.23441447   0.70604602   1.90928077
O    0.93301489  -0.45359991   2.27479121
H    1.48305247  -0.69833397   1.51878321
H   -0.57515234   0.82717710   2.63263325
H    0.89545506   1.58445903   1.97783163
H   -0.83955948   1.55534068   0.23759961
H   -1.88492601  -0.02474762  -1.59477508
H   -2.88273650  -1.28336867  -0.88079288
H   -1.08867848  -2.92511541  -1.06634868
H    0.04058762  -1.69723011  -1.63072861
H   -1.33098038  -2.16972265  -2.64186946
