24
Energy: 2.365
C    0.67710261   1.67576386   2.56421714
C   -0.56544799   0.85013060   2.25003200
C   -0.83311066   0.71903220   0.74890379
H   -0.76499022   1.71551181   0.30531231
H   -1.85263284   0.35371468   0.59900238
C    0.14066725  -0.23294941   0.03887027
N    0.27702959  -0.08587251  -1.40224051
C   -0.75797330   0.46584513  -2.23427543
C    0.52205558   1.18101815  -2.03236600
H    1.27227018   1.16596892  -2.81199528
H    0.52189666   2.08638507  -1.43522962
H   -0.93061226  -0.06389156  -3.16208284
H   -1.65320197   0.87494538  -1.78170639
C   -0.25919409  -1.70226053   0.25333455
O    0.68212818  -2.57626298  -0.30786243
H    0.89733377  -2.22055476  -1.18138198
H   -1.25168403  -1.86693306  -0.19597559
H   -0.31347924  -1.94253847   1.31653146
H    1.15142383  -0.09325040   0.44026068
H   -0.46640572  -0.14126953   2.69444547
H   -1.43069614   1.33203709   2.71166050
H    1.57292135   1.20943270   2.16222824
H    0.80141993   1.77200413   3.64019545
H    0.58983355   2.67424568   2.14005287
