24
Energy: 2.336
C    2.62743164   1.20388653  -0.13247001
C    1.20139467   1.63742897   0.18568561
C    0.18463331   1.24468521  -0.89194550
H    0.65731619   1.27846819  -1.87551603
H   -0.62107579   1.98417761  -0.89066847
C   -0.48306354  -0.12898548  -0.72422757
N   -1.06334047  -0.23692459   0.60021085
C   -2.30453106   0.43499502   0.87543855
C   -2.24673115  -1.03843645   0.77372547
H   -2.27420581  -1.64171488   1.67076400
H   -2.69284996  -1.50520761  -0.09911763
H   -2.37237677   0.90574689   1.84626378
H   -2.79177910   0.97962654   0.07323056
C    0.44738066  -1.34123831  -0.90256531
O    1.27660141  -1.57183560   0.20372406
H    0.75920914  -1.34505382   0.98854090
H    1.09427149  -1.20146138  -1.77196951
H   -0.18060173  -2.23033463  -1.08007177
H   -1.26032330  -0.20456306  -1.51051776
H    0.88861097   1.21429243   1.14063870
H    1.18529686   2.72582123   0.28596879
H    3.30620618   1.56241959   0.63839395
H    2.94689254   1.61856598  -1.08691371
H    2.70193929   0.12233519  -0.17558771
