24
Energy: 1.611
C    2.83108067   1.37595656   0.03091112
C    1.69115219   1.32658506  -0.98004876
C    0.31764761   1.23222069  -0.31615543
H   -0.45779495   1.42643875  -1.05945312
H    0.23741009   2.00528617   0.44948489
C    0.02005512  -0.13736852   0.31731259
N   -0.91086535  -0.85859996  -0.53135828
C   -0.40381527  -1.61405455  -1.64527064
C   -0.95098926  -2.29569255  -0.45325799
H   -1.93735240  -2.73688912  -0.49055282
H   -0.25309396  -2.80311460   0.20603337
H   -0.99100662  -1.55806214  -2.55122494
H    0.66876099  -1.65805595  -1.80281181
C   -0.65798447   0.01828242   1.68629722
O   -1.83976817   0.76849752   1.60294666
H   -2.33194977   0.42984426   0.84405225
H    0.00174953   0.54620770   2.37889854
H   -0.86841435  -0.98187302   2.09872257
H    0.95534638  -0.70590034   0.46203244
H    1.72040332   2.23514309  -1.58554193
H    1.83377835   0.48049042  -1.65570951
H    2.71805058   2.23756815   0.68508793
H    3.78827211   1.45537751  -0.47976056
H    2.84949477   0.48133344   0.64926437
