24
Energy: 2.028
C    1.01473481  -0.33635082   2.43038453
C    0.19619790   0.92264444   2.17613608
C   -0.94857082   0.71096874   1.18422973
H   -1.56352140   1.61404772   1.16535081
H   -1.57458031  -0.10913263   1.54515392
C   -0.54811531   0.39968124  -0.26510393
N    0.06099583  -0.91233889  -0.36990437
C   -0.78314452  -2.07345731  -0.27890022
C   -0.16256265  -1.68686956  -1.56359025
H    0.69459571  -2.23608957  -1.93059276
H   -0.81282025  -1.28719946  -2.33695638
H   -0.37623304  -2.89854540   0.28856610
H   -1.85485105  -1.93565524  -0.17461377
C    0.43349191   1.43524055  -0.83604203
O    0.56482607   1.34233328  -2.23379179
H    0.93353431   0.47611183  -2.44021867
H    1.41064995   1.31241639  -0.35404153
H    0.05873250   2.44219240  -0.64028276
H   -1.46992957   0.44853788  -0.87789435
H   -0.24214270   1.25773891   3.12020230
H    0.84847328   1.72120378   1.82089904
H    1.80645617  -0.13250436   3.14805023
H    1.45619100  -0.69331182   1.50524761
H    0.38102400  -1.12382098   2.83221277
