24
Energy: 1.625
C   -1.38234714  -2.29054392   1.72443435
C   -1.58402192  -1.79793135   0.29501385
C   -0.30403677  -1.20097778  -0.30399421
H   -0.18837447  -1.52537364  -1.34053838
H    0.56351146  -1.56110928   0.25014212
C   -0.27276832   0.33139925  -0.30085911
N    0.96728985   0.76130186  -0.92136131
C    1.05000820   0.79168845  -2.35703623
C    1.00430166   2.04431573  -1.57367313
H    1.90840671   2.61790136  -1.42305583
H    0.09435692   2.63532208  -1.61389327
H    1.98694730   0.45309131  -2.77661567
H    0.17097968   0.52370880  -2.93464334
C   -0.28526286   0.93107718   1.11215900
O    0.78593839   0.47115188   1.89149520
H    1.57614677   0.53085022   1.33908173
H   -1.20194595   0.66225595   1.63914332
H   -0.24799945   2.02920211   1.02363203
H   -1.15567216   0.71571401  -0.84651326
H   -1.91238982  -2.63911209  -0.31947681
H   -2.38205319  -1.05208213   0.27147403
H   -0.69931911  -3.13714770   1.73591053
H   -2.32914920  -2.60990996   2.15508941
H   -0.95975298  -1.50947229   2.34949592
