24
Energy: 1.289
C    0.57698656  -2.53019743   2.37860736
C    0.77682646  -1.53458700   1.24212285
C   -0.11607827  -0.30781394   1.41598321
H    0.20053552   0.26185147   2.29216419
H   -1.14055911  -0.64619423   1.59177374
C   -0.12528535   0.62341803   0.19863098
N   -0.57084581  -0.11066219  -0.97020459
C   -1.97388456  -0.39964094  -1.10627362
C   -1.31434091   0.58694508  -1.98761535
H   -1.07481603   0.31702386  -3.00777335
H   -1.55477210   1.63584451  -1.83807577
H   -2.20993475  -1.38477939  -1.48337319
H   -2.66164659  -0.02495749  -0.35464255
C    1.26643696   1.20573632  -0.09412494
O    1.23149927   2.24475553  -1.04167224
H    0.91573324   1.87586268  -1.87419205
H    1.92890941   0.40103325  -0.43437781
H    1.67655749   1.64862670   0.81596296
H   -0.80185896   1.47248486   0.41645511
H    1.82313723  -1.22781136   1.21555022
H    0.53860031  -2.00772169   0.28889858
H    1.22683673  -3.39233034   2.24951144
H   -0.45317334  -2.87878747   2.40644015
H    0.80709547  -2.06773981   3.33628357
