24
Energy: 2.467
C   -2.45370547   1.42786842  -0.57625807
C   -2.20703558   0.21329919   0.31238541
C   -0.85458083   0.24880648   1.02383696
H   -0.82067405  -0.54998062   1.76662937
H   -0.74588527   1.20249215   1.54522345
C    0.36397107   0.06642385   0.11276796
N    0.50292324  -1.32570668  -0.25184345
C   -0.10733999  -1.80288773  -1.46417183
C    1.36059703  -1.67288191  -1.35503232
H    1.97130098  -2.55234763  -1.20844417
H    1.84038259  -0.87923366  -1.92056380
H   -0.56741351  -2.77900367  -1.39917411
H   -0.62789772  -1.09823183  -2.10597719
C    1.63572793   0.49280626   0.86558230
O    1.62226596   1.84836115   1.23470386
H    1.50518137   2.38421322   0.44155046
H    2.51824143   0.26682078   0.24911480
H    1.71323015  -0.07354171   1.79521628
H    0.26704329   0.71308059  -0.78217784
H   -2.98787188   0.17822899   1.07543827
H   -2.28545713  -0.70104407  -0.27762914
H   -3.45789569   1.39311508  -0.99293619
H   -1.74996696   1.46552781  -1.40484904
H   -2.35295283   2.34569386  -0.00045277
