24
Energy: 1.712
C   -0.48765714   1.70893137   2.52937074
C   -1.31905006   0.49054063   2.14357524
C   -1.34110515   0.22412595   0.63840664
H   -1.76972156   1.09372824   0.13372720
H   -1.99355249  -0.62687414   0.43155145
C    0.02118853  -0.06689802   0.00067993
N   -0.18336475  -0.24316569  -1.42723012
C   -0.38583379   0.93013613  -2.23615007
C    0.86683596   0.15237097  -2.33229540
H    1.02457431  -0.50288288  -3.17895233
H    1.77121737   0.59504914  -1.92550753
H   -1.13708817   0.83709900  -3.00764302
H   -0.33942389   1.90615335  -1.76327638
C    0.64167565  -1.35919085   0.55426093
O    1.87693405  -1.67326546  -0.03784044
H    1.72724419  -1.80103872  -0.98148344
H   -0.07386249  -2.18127164   0.41520245
H    0.85115331  -1.24550686   1.61900633
H    0.71589347   0.76865640   0.19532317
H   -0.94668983  -0.38793081   2.67234766
H   -2.35036738   0.65169466   2.46676951
H   -0.60301104   1.92188863   3.58964494
H   -0.81000624   2.58374048   1.96820700
H    0.56814036   1.54090041   2.33358642
