24
Energy: 2.176
C    0.96278925  -0.88930692  -2.66171284
C    0.90329728  -0.99832967  -1.14450847
H    1.68801742  -0.38868375  -0.69542960
H    1.06362509  -2.03417461  -0.83960502
C   -0.44463210  -0.52011397  -0.58985931
N   -0.61950309   0.86088493  -0.97546830
C   -1.48294836   1.77977917  -0.28882531
C   -0.01258170   1.94467338  -0.25064801
H    0.45317755   2.70242555  -0.86793123
H    0.50316602   1.73198140   0.67676093
H   -2.07600463   2.41196566  -0.93761153
H   -1.99211183   1.48126307   0.62052469
C   -0.54815113  -0.86866202   0.90923936
O    0.54628624  -0.35545332   1.63381464
C    0.54160645  -0.74823757   2.97914757
H    0.58966320  -1.84065255   3.07409950
H    1.42272700  -0.30453332   3.43852382
H   -0.35917891  -0.39241113   3.49671586
H   -0.57194205  -1.96666760   1.00089356
H   -1.49242796  -0.48854720   1.33148704
H   -1.25560874  -1.07115836  -1.08831193
H    0.21680718  -1.53513014  -3.11958131
H    0.76333479   0.13354511  -2.96630569
H    1.94493307  -1.18298994  -3.02445492
