24
Energy: 0.0
C    1.22399505  -1.65783168   1.95231805
C    0.22246223  -0.59023016   1.53308322
H    0.14931426   0.17329771   2.31138463
H   -0.76271114  -1.04018396   1.40988495
C    0.60626641   0.10325482   0.22285747
N   -0.28608998   1.22624964   0.01343798
C    0.02809992   2.47554530   0.65431140
C    0.16611218   2.31682519  -0.80884903
H   -0.57737306   2.74228892  -1.46858596
H    1.17002041   2.27858669  -1.22187669
H   -0.81575059   3.01589692   1.05973671
H    0.93734816   2.54474639   1.24395922
C    0.53000420  -0.85388969  -0.98437337
O   -0.61014174  -1.67074379  -1.02601700
C   -1.78708030  -1.00249886  -1.41827232
H   -2.03059438  -0.18503695  -0.73454002
H   -1.68295549  -0.59578719  -2.43226872
H   -2.57849928  -1.74993648  -1.40765112
H    1.37716239  -1.54297412  -0.94220359
H    0.60744017  -0.25974869  -1.90859519
H    1.65798507   0.44757152   0.29098261
H    2.22888917  -1.24329433   2.01381872
H    0.95717935  -2.05522340   2.92871827
H    1.22768479  -2.47822872   1.24027734
