24
Energy: 0.662
C   -0.36885019  -2.22040426   2.05056673
C    0.34416823  -1.88602264   0.74630715
H   -0.06168568  -2.50086327  -0.05848273
H    1.40754886  -2.11245674   0.84899164
C    0.19366338  -0.41375034   0.34581451
N   -1.19941030  -0.13600188   0.06144594
C   -2.01412414   0.46196752   1.08691122
C   -1.60537345   1.23772458  -0.10085097
H   -2.31726644   1.41217911  -0.89609778
H   -0.86007953   2.01396512   0.02317830
H   -3.02399133   0.08085788   1.15790279
H   -1.55725454   0.71267838   2.03927090
C    1.01944726  -0.11141868  -0.90915259
O    1.29553513   1.26987550  -0.96349169
C    1.98275058   1.64393004  -2.12707261
H    2.14735017   2.71772058  -2.06256372
H    2.94968218   1.12941733  -2.20062565
H    1.39599442   1.41638459  -3.02598298
H    0.45191963  -0.42423496  -1.79778895
H    1.96470886  -0.67635821  -0.88693505
H    0.58177661   0.23087883   1.15488390
H   -0.20037448  -3.26252726   2.31219573
H    0.00493043  -1.59879375   2.86172079
H   -1.43793239  -2.05823904   1.95144140
