24
Energy: 1.776
C   -1.33707112  -0.00884306  -2.81366597
C   -0.07918620  -0.30556352  -2.00707935
H    0.77279908   0.18430325  -2.48409655
H    0.12109163  -1.37846314  -2.00490725
C   -0.14901330   0.18305127  -0.55540142
N    1.17398981   0.06880489   0.02855682
C    2.13804717   1.08578477  -0.31073045
C    1.55619527   1.01610967   1.04440769
H    2.14616739   0.61613960   1.85781817
H    0.84123569   1.77753436   1.33725918
H    3.14458247   0.73020956  -0.48192733
H    1.83107621   1.90423415  -0.95460777
C   -1.14664193  -0.65414234   0.26299311
O   -1.25888934  -0.22172513   1.60342310
C   -0.59966941  -1.04028974   2.53823649
H   -1.08509745  -2.02237735   2.61025444
H    0.45307282  -1.18371218   2.28120369
H   -0.67655250  -0.53212757   3.49813174
H   -0.85185962  -1.70811170   0.22136931
H   -2.14062841  -0.54575337  -0.18285138
H   -0.49713633   1.23270796  -0.54043110
H   -2.18945962  -0.56812984  -2.43765598
H   -1.57647538   1.05166868  -2.77289150
H   -1.18415905  -0.28496335  -3.85445896
