24
Energy: 1.88
C   -0.38090307  -1.95089112  -2.24854541
C   -0.43780667  -1.79259479  -0.73460856
H    0.38107296  -2.35290528  -0.27793186
H   -1.37739240  -2.20194699  -0.35755958
C   -0.31983118  -0.32194562  -0.31204219
N    0.93793004   0.18829246  -0.81826587
C    1.65333734   1.26676063  -0.19105916
C    2.19566180  -0.10982138  -0.18822243
H    2.99390099  -0.37208967  -0.87067073
H    2.22125840  -0.65262940   0.75040081
H    2.06218581   1.99637771  -0.87865649
H    1.28772401   1.67705753   0.74137997
C   -0.56377106  -0.19547704   1.20832398
O   -0.75333270   1.12070884   1.68204529
C   -2.00487365   1.68250814   1.38182014
H   -2.05242437   2.62540555   1.92369884
H   -2.12412490   1.87995372   0.31093590
H   -2.82027306   1.02821928   1.71509029
H    0.29741360  -0.57674100   1.76334033
H   -1.43735393  -0.81068778   1.47185006
H   -1.09710091   0.25379852  -0.83184581
H    0.53280360  -1.50696534  -2.63165942
H   -0.40697298  -3.00325500  -2.52115019
H   -1.22662216  -1.45105340  -2.71478252
