24
Energy: 0.817
C   -0.42502287  -1.18246138   2.24870153
C   -1.19939368  -0.50596110   1.12519858
H   -1.84386912   0.27311902   1.54136421
H   -1.84184227  -1.23108441   0.62346238
C   -0.29006752   0.14116947   0.07650092
N   -1.11292463   0.92642093  -0.82137971
C   -1.48750717   2.25611763  -0.41835305
C   -0.51297001   2.03943367  -1.50852586
H   -0.81826980   2.17069037  -2.53709083
H    0.52841422   2.27781197  -1.31133741
H   -2.50223402   2.54439053  -0.65373539
H   -1.11434498   2.64187016   0.52577890
C    0.45171730  -0.89387118  -0.78942892
O    1.47266775  -1.61282196  -0.14096000
C    2.65704098  -0.89037147   0.07735801
H    3.38797744  -1.60624627   0.44938060
H    3.02624420  -0.44456228  -0.85504517
H    2.52841842  -0.09623864   0.82147516
H    0.85948375  -0.37670357  -1.67201715
H   -0.26490726  -1.64376259  -1.13227965
H    0.45375873   0.77827820   0.59246371
H   -1.11412073  -1.63076315   2.96064747
H    0.22062862  -1.95920548   1.84966988
H    0.19116381  -0.45856972   2.77955635
