24
Energy: 2.165
C    2.70881556  -0.51317865   0.34573133
C    1.27819943  -0.64089866   0.84977256
H    1.18546871  -0.14441268   1.81802958
H    1.01324822  -1.69160333   0.97945315
C    0.27002321  -0.00456382  -0.11481808
N    0.52263769   1.41958041  -0.15599811
C   -0.34811902   2.35737278  -0.80645235
C   -0.17165077   2.37301231   0.66375082
H    0.45679284   3.12971813   1.11504418
H   -1.00311903   2.05699098   1.28265264
H    0.15479074   3.09975725  -1.41258243
H   -1.30034817   2.02977054  -1.20955325
C   -1.16051392  -0.43687910   0.28083046
O   -1.37481726  -1.82514191   0.16717157
C   -1.53651496  -2.29577319  -1.14672542
H   -1.83111022  -3.34011924  -1.06038206
H   -2.32237983  -1.73924501  -1.67314972
H   -0.61035331  -2.23376371  -1.72849904
H   -1.90707385   0.10247615  -0.32206262
H   -1.33125650  -0.21789253   1.33867511
H    0.47310374  -0.36716224  -1.13098594
H    3.40667263  -0.91379107   1.07697836
H    2.83662496  -1.05824075  -0.58699898
H    2.94334602   0.53268767   0.16851578
