24
Energy: 0.807
C   -0.85191525  -0.90206264   2.27981838
C   -0.56196254   0.42793711   1.59701781
H    0.12410663   1.01571702   2.21286208
H   -1.48260139   1.00365170   1.48960439
C    0.06646246   0.26057356   0.21070892
N    0.45721552   1.56780369  -0.27705858
C    1.71938420   2.10834247   0.15365124
C    1.52471728   1.65145645  -1.23865499
H    1.38436831   2.37643648  -2.02804736
H    2.02565255   0.73797786  -1.54664961
H    1.72007992   3.16574952   0.37733223
H    2.35280348   1.50807197   0.80010058
C   -0.91527557  -0.33193140  -0.81742501
O   -1.16822697  -1.71044481  -0.68600513
C   -0.14512984  -2.54569452  -1.16262228
H    0.10822914  -2.30634398  -2.20341348
H    0.76449067  -2.47882075  -0.55487079
H   -0.53005014  -3.56251757  -1.10919405
H   -0.53275124  -0.11512843  -1.82662261
H   -1.88504918   0.15860852  -0.70606927
H    0.94291305  -0.41013156   0.29565213
H   -1.31405764  -0.73240189   3.24952545
H   -1.52219930  -1.50234824   1.67163360
H    0.06877256  -1.46242246   2.43314139
