24
Energy: 1.142
C   -1.41123760  -0.53170682   2.35241102
C   -0.94774051  -1.32497937   1.13724848
H   -1.80505911  -1.77404158   0.63037044
H   -0.29363849  -2.13445094   1.47004820
C   -0.16464934  -0.46949676   0.13375078
N    1.00411909   0.07123558   0.79295795
C    2.22035868  -0.69772066   0.77534784
C    2.09466562   0.54284151  -0.01849329
H    2.56575786   1.45186387   0.32778290
H    2.01549330   0.45928280  -1.09653488
H    2.78666592  -0.69271317   1.69635668
H    2.23377561  -1.64488471   0.24309207
C   -1.00460665   0.69690244  -0.41615447
O   -0.55034278   1.18796357  -1.65776797
C   -0.96216114   0.43620489  -2.76958634
H   -2.05676559   0.36816798  -2.81716768
H   -0.59447999   0.96206815  -3.64889279
H   -0.55137757  -0.58077553  -2.76412346
H   -0.92618080   1.53829864   0.27529215
H   -2.05709958   0.39066194  -0.49896910
H    0.12266271  -1.11757493  -0.71745161
H   -2.16020930   0.20464975   2.07436381
H   -1.84380405  -1.19981044   3.09358144
H   -0.56388870  -0.01504118   2.79301220
