24
Energy: 1.673
C   -1.01304536   2.45246755  -0.81271702
C    0.35247564   2.07430654  -0.25150652
H    0.58205272   2.68656579   0.62286155
H    1.11347369   2.27457590  -1.00930549
C    0.45352641   0.59446686   0.13900022
N    0.21642020  -0.22184890  -1.03425062
C    1.30946049  -0.40495336  -1.95456853
C    0.83813786  -1.51807869  -1.10550928
H    0.23181248  -2.30046409  -1.54218892
H    1.46821828  -1.83771863  -0.28228178
H    1.04343061  -0.37782549  -3.00219745
H    2.27115154   0.04096314  -1.71995207
C   -0.55726484   0.22216979   1.23481225
O   -0.22652752  -1.01095068   1.84718887
C   -1.15466766  -2.04415841   1.63446506
H   -2.12111806  -1.81305579   2.10020038
H   -1.31105326  -2.23590031   0.56807985
H   -0.73558827  -2.93255289   2.10456061
H   -1.56074835   0.18102979   0.80416252
H   -0.53259817   0.99424416   2.01367892
H    1.46174171   0.41015394   0.55598186
H   -1.28800247   1.76013400  -1.60320518
H   -1.77536984   2.42043379  -0.03911537
H   -0.98354086   3.46003761  -1.22115925
