24
Energy: 1.077
C    0.55908970   1.43400680  -1.71700569
C    1.51928251   0.53445601  -0.94964673
H    2.31804530   1.13499050  -0.50982948
H    1.97700523  -0.17290677  -1.64716150
C    0.85520247  -0.27556420   0.17244111
N   -0.27221545  -1.01273683  -0.35587480
C   -0.01645891  -2.25618315  -1.03256204
C   -0.66072100  -2.23325192   0.29779546
H   -1.72607335  -2.39761888   0.38344305
H   -0.07945812  -2.58003594   1.14755726
H   -0.61220458  -2.43615807  -1.91647433
H    1.00574250  -2.61746878  -1.09355732
C    0.42721520   0.58072683   1.38317307
O   -0.45368134   1.64345977   1.13797052
C   -1.79298142   1.25844551   0.92955679
H   -2.17598983   0.70140655   1.79416607
H   -2.35900487   2.18133771   0.81449224
H   -1.89558480   0.64122186   0.03405064
H    1.32570501   1.04489948   1.80095403
H   -0.00398894  -0.09279469   2.14211499
H    1.62114317  -0.97351426   0.57392900
H    0.14486200   2.19221563  -1.06073553
H    1.08542814   1.92493442  -2.53297346
H   -0.25443015   0.84390473  -2.12975627
