24
Energy: 2.135
C   -2.08890211  -1.33329367   1.97241414
C   -1.29915193  -1.52138435   0.68427790
H   -1.97326237  -1.44267530  -0.17091566
H   -0.84546883  -2.51435116   0.66926994
C   -0.20186430  -0.45577344   0.53507464
N   -0.85430704   0.83501971   0.48768892
C   -0.11269235   2.06412544   0.41129547
C   -0.97976975   1.62647422  -0.70428461
H   -1.94914150   2.08824023  -0.84379542
H   -0.49977348   1.31288328  -1.62303179
H   -0.45475666   2.84386667   1.08016173
H    0.95915391   2.01932146   0.26680993
C    0.70312989  -0.82930561  -0.65159021
O    1.79358610   0.05809071  -0.74929940
C    2.68699856  -0.28488889  -1.77399390
H    3.11163636  -1.28398336  -1.61237487
H    2.19457492  -0.26975487  -2.75519509
H    3.48366334   0.45616141  -1.75672052
H    0.12344644  -0.83000164  -1.58889643
H    1.07403654  -1.85497341  -0.49499607
H    0.42173741  -0.45175999   1.43776524
H   -2.49890581  -0.32849858   2.00415440
H   -2.90234899  -2.05256507   2.02864848
H   -1.44415623  -1.47071441   2.83714283
