24
Energy: 1.774
C   -2.73669704  -1.48752731  -0.00008717
C   -1.68455385  -0.77746726   0.84237051
H   -1.40365243  -1.42276204   1.67782632
H   -2.09763014   0.14054632   1.26399125
C   -0.40768772  -0.43116804   0.06705194
N    0.61174925  -0.03510372   1.02003134
C    1.29524465  -1.08474501   1.73383584
C    1.99045440  -0.29792105   0.69571349
H    2.69344334   0.46917869   0.99106317
H    2.21757429  -0.77955241  -0.24934603
H    1.48826302  -0.88465265   2.77862337
H    1.04768703  -2.11754073   1.50854542
C   -0.65553539   0.71786795  -0.92386427
O    0.47436284   1.00131850  -1.72469388
C    1.15209933   2.18554265  -1.38457192
H    0.53225351   3.06712438  -1.59366569
H    1.44291247   2.19896391  -0.33066843
H    2.04285562   2.21849866  -2.00994403
H   -0.97016562   1.60813356  -0.36954300
H   -1.45850515   0.42342201  -1.60758383
H   -0.08341600  -1.31374172  -0.51500258
H   -3.57454738  -1.78547086   0.62607394
H   -3.11620158  -0.84143827  -0.78711088
H   -2.31924660  -2.38051223  -0.46046994
