24
Energy: 0.372
C    1.01657494   1.72364495   1.93344616
C   -0.39679561   1.24657964   1.62328585
H   -1.04060009   2.09805127   1.39339665
H   -0.80400380   0.74549136   2.50431216
C   -0.44513506   0.25413430   0.45571580
N    0.35068366  -0.90656443   0.79539634
C   -0.29261760  -1.99000814   1.49134274
C    0.11158965  -2.13097096   0.07706344
H    0.99823510  -2.69794610  -0.17138674
H   -0.66246746  -2.13979173  -0.68137855
H    0.29667821  -2.45695373   2.26856665
H   -1.35290214  -1.91227775   1.71270435
C    0.08711062   0.85626874  -0.84723430
O   -0.47591062   0.15188046  -1.93202543
C    0.02151139   0.57210711  -3.17361788
H   -0.47873302  -0.02786557  -3.93130267
H   -0.19199581   1.63462099  -3.34924633
H    1.10586685   0.41739663  -3.24106654
H    1.18253081   0.77354691  -0.86914947
H   -0.18719525   1.92080621  -0.91380842
H   -1.49980098  -0.02154634   0.26788958
H    1.66862631   0.86538105   2.06574881
H    1.40697855   2.33531147   1.12454024
H    1.02160518   2.31641708   2.84527055
