24
Energy: 0.63
C   -1.98264404   1.24566245   1.27419483
C   -1.43864015   0.74052468  -0.05588637
H   -1.37753037   1.56729043  -0.76483998
H   -2.11325167  -0.01231170  -0.46838506
C   -0.04684566   0.11100580   0.05274720
N    0.95381752   1.14059209   0.23060938
C    1.33884349   1.52243703   1.56353752
C    2.26117300   0.75866334   0.69816066
H    3.08988602   1.25921819   0.21777404
H    2.44668524  -0.28092665   0.95215369
H    1.49709400   2.58107478   1.71535712
H    0.89560786   1.00404760   2.40843947
C    0.28759297  -0.63625462  -1.25276605
O   -0.62604531  -1.64883468  -1.59487749
C   -0.53337559  -2.81389027  -0.81403932
H    0.49449885  -3.19767381  -0.79601280
H   -0.86763130  -2.65018951   0.21659345
H   -1.18420317  -3.54926863  -1.28385037
H    1.30596242  -1.04852135  -1.18582624
H    0.25649376   0.07955935  -2.07740410
H   -0.03446209  -0.60893149   0.89358434
H   -2.02025558   0.44174973   2.00768632
H   -1.35846183   2.04472698   1.66543660
H   -2.99042981   1.63242885   1.14211539
