24
Energy: 0.81
C    0.05112814   1.94755005   1.72642310
C    0.21955721   0.43459371   1.68649613
H   -0.46572804  -0.03111365   2.39986901
H    1.23452372   0.16144774   1.97953208
C   -0.05775860  -0.15743685   0.30187611
N   -0.02792867  -1.60228429   0.40562422
C   -1.21563748  -2.27928474   0.85479100
C   -0.77349467  -2.37519920  -0.55250291
H   -0.28800770  -3.27493434  -0.90357077
H   -1.35958594  -1.85416235  -1.30434243
H   -1.05152018  -3.10899078   1.52767371
H   -2.10397486  -1.69199505   1.06790078
C    1.00390365   0.24734418  -0.73795054
O    0.89529111   1.56308923  -1.22698564
C   -0.11623891   1.75488510  -2.18163635
H   -1.11930785   1.63821973  -1.75551540
H   -0.00486448   2.77475238  -2.54540336
H   -0.00658163   1.05494347  -3.02001730
H    0.96228898  -0.46826286  -1.57320033
H    1.99383013   0.18220212  -0.28044336
H   -1.04805702   0.19595871  -0.04395119
H   -0.97265262   2.22515638   1.48174144
H    0.27899532   2.32395499   2.72097400
H    0.71553025   2.42218480   1.01028132
