24
Energy: 1.72
C    0.88548223   0.66706892  -2.46837480
C   -0.19944141   0.89736073  -1.42308126
H   -1.17508744   0.67023688  -1.85612391
H   -0.19313627   1.94829146  -1.12653976
C   -0.02815877   0.02701956  -0.17182629
N   -0.28719168  -1.35604673  -0.51981919
C    0.82253781  -2.20836124  -0.85747781
C    0.10121898  -2.37668949   0.42043355
H   -0.60156696  -3.19014648   0.53597416
H    0.60500057  -2.07867269   1.33414789
H    0.64661521  -2.90160192  -1.66866812
H    1.82827907  -1.80091750  -0.82011426
C   -1.00451132   0.44656796   0.95144771
O   -0.37923843   1.07709553   2.04431553
C    0.03320880   2.39775362   1.80059597
H   -0.80279529   3.01346655   1.44553677
H    0.39006356   2.78776113   2.75233372
H    0.84546201   2.44760697   1.06643641
H   -1.47099738  -0.44820381   1.36984480
H   -1.79671887   1.09010244   0.54332956
H    0.99823829   0.14891691   0.22345406
H    0.85210016  -0.35492443  -2.83421156
H    0.74061350   1.33887168  -3.31139690
H    1.87174638   0.85521623  -2.04754021
