24
Energy: 0.612
C    0.92646679   2.48709282   1.42575863
C   -0.00852012   1.29461022   1.58048043
H   -1.00801099   1.65274494   1.83538511
H    0.32787933   0.65236637   2.39596934
C   -0.12798025   0.45094119   0.30612388
N   -1.29954888  -0.39283021   0.42862130
C   -2.55979287   0.12500270  -0.03703604
C   -1.86497277  -0.95196342  -0.77220958
H   -2.21459175  -1.97123330  -0.68328509
H   -1.39918795  -0.71098090  -1.72052256
H   -3.41500964  -0.11125323   0.58107022
H   -2.58431633   1.11401549  -0.48470113
C    1.09166661  -0.44796397   0.09251772
O    1.17177916  -0.79497000  -1.27184079
C    2.21036669  -1.69546750  -1.54668738
H    2.07421473  -2.63843751  -1.00218627
H    2.18392374  -1.88742277  -2.61755154
H    3.18664981  -1.27261665  -1.27533179
H    0.98294603  -1.35028752   0.71211206
H    2.01260437   0.07195567   0.39637906
H   -0.20074769   1.11875456  -0.57151699
H    0.95627888   3.06187797   2.34839186
H    1.93890483   2.16716729   1.19228451
H    0.58288936   3.13975045   0.62602544
