24
Energy: 0.859
C    0.80120934   2.30679066  -0.01983733
C    0.36071142   1.25722844  -1.03289057
H    1.21393912   0.91911746  -1.62178434
H   -0.36945553   1.70400447  -1.71205910
C   -0.28686765   0.02333993  -0.39295248
N   -1.39979877   0.42908256   0.43823924
C   -2.66663687   0.67443160  -0.19892950
C   -2.46624615  -0.51067973   0.66116350
H   -2.87257202  -0.52308595   1.66290923
H   -2.41540716  -1.48283885   0.18011671
H   -3.21869044   1.52449450   0.17691889
H   -2.75306916   0.51511779  -1.26934538
C    0.69661053  -0.76821079   0.47292104
O    1.74566113  -1.24138199  -0.33848534
C    2.71122892  -1.95764198   0.38303318
H    3.17642581  -1.33286730   1.15637738
H    2.27504122  -2.84203292   0.86556791
H    3.46783569  -2.27172315  -0.33330279
H    0.16782735  -1.61410397   0.94213290
H    1.08279995  -0.13052118   1.27968518
H   -0.61257172  -0.64853922  -1.21014607
H    1.64985066   1.95689222   0.56098793
H    1.09648718   3.21842392  -0.53428735
H   -0.01695837   2.53257632   0.65847599
