24
Energy: 0.808
C   -1.23857888   0.43303897  -2.23159799
C   -1.26114156   0.90264068  -0.78306723
H   -2.26919777   0.78825918  -0.37537595
H   -1.00219556   1.96110094  -0.72757200
C   -0.29473825   0.12227337   0.11253989
N   -0.52311889   0.51879881   1.48739982
C   -1.59319617  -0.11405109   2.21211366
C   -0.18063484  -0.40560133   2.53588108
H    0.27159770   0.03364510   3.41393259
H    0.20933518  -1.38315633   2.26661662
H   -2.16867925   0.53742359   2.85441155
H   -2.17096632  -0.89090413   1.72003197
C    1.18222775   0.42237118  -0.20397157
O    1.67425487  -0.14384669  -1.39487584
C    1.94472779  -1.52005697  -1.32638657
H    1.03293436  -2.11886990  -1.22080989
H    2.43199768  -1.78324609  -2.26356309
H    2.61658564  -1.75004620  -0.48952224
H    1.79335121   0.09064993   0.64963608
H    1.30785499   1.50174903  -0.31629151
H   -0.47752191  -0.96087482  -0.02400687
H   -1.92787049   1.02611580  -2.82813329
H   -0.24003226   0.53255148  -2.64689539
H   -1.53839680  -0.61130743  -2.30037425
