24
Energy: 0.327
C    2.21143333   1.38612432   0.94288211
C    1.34248631   1.02056290  -0.25331011
H    1.76491165   0.15486892  -0.76309730
H    1.32707473   1.85094830  -0.96169395
C   -0.10683115   0.69636313   0.12378619
N   -0.16262597  -0.54069523   0.87570986
C   -0.11653516  -0.49023346   2.31280817
C   -1.36480703  -0.84559465   1.60709821
H   -1.68555456  -1.87734405   1.56457364
H   -2.17318609  -0.12017533   1.61462862
H    0.47186368  -1.26387290   2.78658172
H   -0.07292103   0.47783514   2.80226061
C   -0.97025830   0.58003249  -1.15090097
O   -0.40475856  -0.18075627  -2.18516542
C   -0.43563538  -1.57244928  -1.96529891
H    0.12412115  -1.84901160  -1.06796473
H   -1.46907456  -1.92679975  -1.86091940
H    0.01619838  -2.02806004  -2.84459073
H   -1.10142382   1.58040619  -1.57301909
H   -1.95971086   0.17832322  -0.88117639
H   -0.52565842   1.53484824   0.71540649
H    1.78918134   2.23258628   1.48189389
H    2.29832852   0.54627280   1.62674457
H    3.20930059   1.65924840   0.60768267
