24
Energy: 2.144
C    2.51658410  -1.75968712   0.55707972
C    1.26488099  -1.13186678   1.15592348
H    1.54806308  -0.29780374   1.80227000
H    0.74005934  -1.86945482   1.76604272
C    0.31860949  -0.60557475   0.06750794
N    1.04702817   0.37186295  -0.70962496
C    0.39892372   1.36845759  -1.51574615
C    1.17428227   1.74756005  -0.31333557
H    2.16781227   2.16241295  -0.42709028
H    0.63920601   2.12205666   0.55256162
H    0.83514285   1.51294570  -2.49590071
H   -0.67971219   1.45105965  -1.48527247
C   -1.01269956  -0.15734627   0.69973372
O   -2.00712997  -0.04609823  -0.29369637
C   -3.27108018   0.26322364   0.22838738
H   -3.95489655   0.31459222  -0.61647724
H   -3.61142181  -0.51009055   0.92904575
H   -3.26284581   1.22864590   0.75171833
H   -0.89863858   0.79953050   1.23281998
H   -1.31923271  -0.90996628   1.44326275
H    0.07758550  -1.41746308  -0.63041155
H    3.01867680  -1.04112965  -0.08324394
H    3.19789410  -2.07301190   1.34460327
H    2.25453782  -2.62838734  -0.04167443
