24
Energy: 1.284
C   -0.01687534   2.82453209   0.23491855
C   -0.72718269   1.71794991  -0.53462536
H   -0.62716377   1.90321764  -1.60608773
H   -1.79253761   1.71523354  -0.29953429
C   -0.15676459   0.32529605  -0.24331201
N   -0.62061553  -0.58263253  -1.27214648
C    0.18545487  -0.74957646  -2.45296124
C    0.08092195  -1.82787237  -1.44743777
H   -0.54624331  -2.68560911  -1.64520782
H    0.93969245  -2.03209421  -0.81792866
H   -0.36214085  -0.82632039  -3.38200913
H    1.12487428  -0.20889286  -2.52618260
C   -0.61956665  -0.21973373   1.12038079
O    0.30191573  -1.10232091   1.72101893
C    1.34957077  -0.46407232   2.40399048
H    1.96213458  -1.25323758   2.83606745
H    1.97011514   0.14809355   1.73860466
H    0.96403575   0.17793653   3.20678974
H   -1.53064287  -0.80219843   0.96284318
H   -0.84299870   0.60781938   1.80655678
H    0.94804863   0.38794624  -0.23950844
H    1.04045443   2.85123911  -0.02201091
H   -0.45157908   3.79062318  -0.00972684
H   -0.10277279   2.67656808   1.30894273
