24
Energy: 1.276
C    2.31466227  -1.44586182  -0.82847151
C    1.35470347  -0.38435364  -1.35089901
H    0.91915891  -0.72519507  -2.29242782
H    1.88968875   0.54463992  -1.55347281
C    0.20448018  -0.08717207  -0.38204041
N   -0.83187742   0.61864668  -1.10682080
C   -1.86819089  -0.15046643  -1.74438781
C   -2.15500790   0.65731826  -0.54025416
H   -2.67029483   1.60219762  -0.63902687
H   -2.33351732   0.14196959   0.39673991
H   -2.17900224   0.20533146  -2.71684964
H   -1.85522844  -1.23202520  -1.64259049
C    0.65318350   0.79813087   0.79449064
O   -0.11915943   0.62749776   1.96196182
C    0.24665552  -0.48298535   2.73929779
H    0.11035056  -1.43075575   2.20471060
H    1.29441624  -0.41296568   3.05954652
H   -0.39969983  -0.47247829   3.61502000
H    0.52355296   1.84312766   0.50236704
H    1.71308759   0.62176456   1.02103725
H   -0.17569681  -1.04464933   0.02208448
H    1.79038472  -2.38368259  -0.65451439
H    3.10480978  -1.62643304  -1.55319033
H    2.77661917  -1.13541369   0.10585648
