24
Energy: 2.077
C    2.22224579   1.59740289   0.88772530
C    1.38820046   0.94848109  -0.20768183
H    1.98973543   0.20235684  -0.73212916
H    1.06206148   1.69982146  -0.92772208
C    0.14147457   0.25681562   0.35741999
N    0.57533282  -0.81173541   1.22871672
C   -0.32670721  -1.76731998   1.80649070
C    0.68123401  -2.17955538   0.80321885
H    1.57671142  -2.69270085   1.12886912
H    0.33495204  -2.47047488  -0.18192328
H   -0.15483592  -1.97949990   2.85362785
H   -1.37318034  -1.76818139   1.52112863
C   -0.80002211  -0.13340087  -0.79697524
O   -1.37632487   1.04805928  -1.30148503
C   -2.23490156   0.82021214  -2.38683768
H   -2.61849589   1.79188928  -2.69090600
H   -1.70156716   0.35792747  -3.22773571
H   -3.07252857   0.16896031  -2.10433120
H   -1.59599565  -0.81062084  -0.44665501
H   -0.23911877  -0.64736207  -1.59457147
H   -0.40414674   0.97208943   0.98528786
H    2.49385114   0.85429462   1.63196221
H    3.12866892   2.02908346   0.47000719
H    1.65711271   2.38649582   1.37768921
