24
Energy: 0.814
C    0.53944888   2.23587388  -1.21062175
C   -0.02892665   0.85908399  -1.52450021
H    0.46706689   0.45115172  -2.40879526
H   -1.09435367   0.93103847  -1.75080380
C    0.15596460  -0.13585961  -0.37542915
N   -0.25201008  -1.44796275  -0.83714015
C    0.70447407  -2.23384475  -1.57128591
C    0.31560021  -2.60459078  -0.19449997
H   -0.36645200  -3.42767125  -0.03258573
H    1.04506062  -2.45648317   0.59587373
H    0.30517717  -2.78688374  -2.40989734
H    1.70153384  -1.83284072  -1.72543806
C   -0.68534681   0.21574913   0.85640828
O   -0.00322156   1.16449771   1.64334033
C   -0.71341247   1.52584319   2.79695694
H   -1.68216773   1.97651875   2.54492721
H   -0.89181286   0.65731974   3.44423314
H   -0.10134606   2.25349739   3.32632938
H   -0.85906922  -0.70052516   1.44346398
H   -1.66720524   0.60401653   0.54732475
H    1.21462562  -0.12460074  -0.05724527
H    0.07733819   2.64667824  -0.31842362
H    1.61097250   2.17318570  -1.03487214
H    0.36424066   2.91406900  -2.04282420
