24
Energy: 0.898
C   -1.61455838  -1.87476700   0.10321574
C   -0.17251820  -1.57540737  -0.28620822
H   -0.04544951  -1.71226818  -1.36143897
H    0.49202487  -2.27500899   0.22751677
C    0.26869353  -0.15227407   0.07656549
N    0.09064374   0.06643913   1.49534277
C    1.11994421  -0.38920132   2.39166940
C    0.90930108   1.05328813   2.14699269
H    0.40696903   1.65776358   2.88897933
H    1.65773448   1.58210620   1.56376455
H    0.77073956  -0.83539190   3.31212962
H    2.01147252  -0.84911758   1.97556592
C   -0.55279077   0.91919591  -0.66333017
O   -0.59817075   0.76182257  -2.05996280
C    0.59255589   1.09446714  -2.72715639
H    0.92790489   2.10453071  -2.45868728
H    1.40092053   0.38601270  -2.51269992
H    0.36648421   1.06130737  -3.79165063
H   -0.15492450   1.91272695  -0.40353914
H   -1.58791206   0.86535279  -0.32279106
H    1.33430250  -0.04022390  -0.20855662
H   -2.30444942  -1.31981639  -0.52555558
H   -1.81943867  -2.93589313  -0.01874291
H   -1.78243378  -1.59904567   1.14052699
