24
Energy: 1.277
C   -2.74796831  -0.32623530   0.78778172
C   -1.73032757  -0.91532036  -0.18103584
H   -2.12302687  -0.85088729  -1.19789469
H   -1.56280907  -1.97041665   0.04028300
C   -0.38112744  -0.18772071  -0.15276447
N    0.35723611  -0.55084356  -1.34435326
C    0.19903133   0.25932568  -2.52357198
C    1.45757292   0.28477906  -1.74895646
H    2.32510775  -0.24396763  -2.11739494
H    1.68371611   1.16711221  -1.16101228
H    0.15326891  -0.28355796  -3.45737976
H   -0.44698265   1.13162961  -2.47668916
C    0.46082393  -0.58727308   1.07152925
O    1.43386243   0.36719496   1.43251724
C    0.94070701   1.43969495   2.19249358
H    1.79834516   2.06452699   2.43519859
H    0.20545237   2.03944662   1.64262426
H    0.47448543   1.08503115   3.12094885
H    1.01533587  -1.49482153   0.82047612
H   -0.19275212  -0.79458654   1.92942902
H   -0.56620452   0.90274011  -0.11574300
H   -2.39539432  -0.38399554   1.81491743
H   -2.94143394   0.71846286   0.55166022
H   -3.68702220  -0.87026760   0.72135320
