24
Energy: 0.548
C    1.88514051  -0.58544941  -1.92853652
C    1.53092942  -0.00364859  -0.56626305
H    1.81200074   1.05033554  -0.53488965
H    2.08003230  -0.53445991   0.21269403
C    0.04106099  -0.10912586  -0.22698456
N   -0.72401218   0.81075095  -1.04185889
C   -1.27259600   0.34566224  -2.28854953
C   -2.14952889   0.62373580  -1.13297740
H   -2.73797169   1.53026262  -1.10862231
H   -2.60097135  -0.22371157  -0.62624651
H   -1.22437204   1.04996679  -3.10759582
H   -1.12652942  -0.69185882  -2.57190320
C   -0.18334043   0.25580168   1.24426962
O    0.41591996  -0.72492749   2.05727054
C    0.29909487  -0.44396430   3.42650564
H    0.78581531   0.50617236   3.68088385
H   -0.75306143  -0.39050380   3.73479274
H    0.79116801  -1.25769205   3.95557146
H   -1.26315741   0.31434113   1.45489903
H    0.25200634   1.24606615   1.44585586
H   -0.28789556  -1.15549972  -0.36382117
H    2.95965501  -0.53226876  -2.08820137
H    1.58252369  -1.62896948  -1.99067916
H    1.39338859  -0.03085847  -2.72321811
