24
Energy: 1.396
C   -0.81121437  -1.13616239  -2.57134247
C   -0.02852799  -1.49216647  -1.31342180
H    1.01280173  -1.68507926  -1.57470165
H   -0.44626816  -2.40095273  -0.87386213
C   -0.05734639  -0.37832358  -0.26030489
N    0.61100349   0.79321958  -0.78691222
C   -0.17663154   1.86623618  -1.33450648
C    0.52778194   2.02674224  -0.04637274
H    1.44523520   2.59693531  -0.00503558
H   -0.05798156   2.05014521   0.86476117
H    0.22338184   2.32822404  -2.22685102
H   -1.25974860   1.78459003  -1.31653631
C    0.67995434  -0.82860412   1.01541352
O    0.31168479  -0.11945494   2.17654555
C   -0.88225723  -0.55720010   2.77216625
H   -1.00680400   0.03176435   3.67903124
H   -1.75370923  -0.40406559   2.12424436
H   -0.82586958  -1.62165203   3.03371498
H    1.74732969  -0.63879131   0.87972722
H    0.52659081  -1.90575706   1.17323421
H   -1.11019731  -0.15916849  -0.00058373
H   -0.78988889  -1.96648807  -3.27331142
H   -1.85006267  -0.91915357  -2.32959112
H   -0.37687183  -0.26541876  -3.05317180
