23
Energy: 2.903
C    1.54106453  -0.93853757   2.13485027
H    2.61676153  -0.97874179   2.28811483
H    1.14053330  -1.94644920   2.22190329
H    1.09973375  -0.31850513   2.90981464
C    1.22408139  -0.35919111   0.75781402
C    1.79683081  -1.24995044  -0.33880899
H    2.85816354  -1.41207788  -0.16612255
H    1.29264477  -2.21333523  -0.34072280
H    1.67319404  -0.79868500  -1.31860819
H    1.66941722   0.63793007   0.69354381
C   -0.29879634  -0.19454869   0.61208892
C   -0.73020699   0.22810027  -0.79711434
C   -1.48395006   1.50963424  -1.02384323
C   -0.06805587   1.36387838  -1.51849262
H    0.69981308   1.92008815  -1.00585780
H    0.09695922   1.27121946  -2.58315486
H   -1.65203886   2.16874779  -0.18675278
H   -2.28452661   1.50712268  -1.74986266
O   -1.11066282  -0.91351393  -1.51280300
H   -1.28387252  -0.66735747  -2.42786618
O   -0.72138912   0.72503032   1.59583008
H   -1.68333675   0.71569295   1.63300391
H   -0.76836586  -1.17640213   0.78224114
