23
Energy: 2.292
C   -2.13183605   0.01118127  -0.45812957
H   -2.07431478  -1.01680908  -0.80976788
H   -1.82552265   0.69078437  -1.25229653
H   -3.17178102   0.23005198  -0.22557832
C   -1.27224829   0.19326394   0.79172489
C   -1.90909855  -0.52297294   1.98047784
H   -1.33859013  -0.33740888   2.88729403
H   -2.92881972  -0.17821681   2.13479078
H   -1.92002454  -1.59394974   1.79676289
H   -1.20097420   1.26243985   1.01815370
C    0.17138593  -0.34173925   0.60714590
C    0.93218566   0.34789762  -0.52765114
C    1.16036605   1.83098326  -0.50557825
C    2.31182384   0.88764091  -0.29896886
H    2.74133259   0.80149457   0.68631981
H    3.01887367   0.77464033  -1.10542939
H    0.80114611   2.39420189   0.34136355
H    1.10821167   2.36108843  -1.44472031
O    0.74348483  -0.28188675  -1.76636372
H   -0.11731627  -0.03445322  -2.12528624
O    0.17732164  -1.73374494   0.39056252
H    0.37336236  -1.87150370  -0.54838702
H    0.70528354  -0.16122748   1.55011129
