23
Energy: 2.038
C   -0.46729579  -1.25072419   1.95792470
H   -0.18164071  -1.49110939   2.97943264
H    0.01830476  -1.95569662   1.28951213
H   -1.54551117  -1.36537132   1.86781082
C   -0.04021352   0.17458891   1.62371675
C    1.47437714   0.32160044   1.75051124
H    1.78841498   1.32560025   1.47262416
H    1.77868543   0.13734084   2.77854571
H    1.97777300  -0.39061047   1.10347728
H   -0.51165688   0.85363507   2.35014072
C   -0.56430958   0.61114335   0.23695114
C   -0.07624192  -0.21281141  -0.94797678
C   -0.74332409  -1.49782855  -1.31969968
C   -0.96070693  -0.27736626  -2.16891492
H   -1.92319748   0.20840974  -2.14045499
H   -0.47242027  -0.24302966  -3.12989238
H   -1.56083332  -1.85441707  -0.71371826
H   -0.10660313  -2.27435411  -1.71279221
O    1.29826953  -0.14611974  -1.17060536
H    1.53139026   0.79074097  -1.18845794
O   -0.18170191   1.94843938  -0.05158231
H   -0.43413617   2.50778530   0.69046347
H   -1.66492920   0.54062441   0.25832075
