23
Energy: 3.211
C   -0.63250212   1.73314110  -2.10781518
H   -1.38375215   2.51572414  -2.18444674
H   -0.84068156   0.98635582  -2.87254249
H    0.33580124   2.18759901  -2.31098047
C   -0.68218569   1.10119852  -0.71483168
C   -2.10953868   0.67077955  -0.39535257
H   -2.18207491   0.28157882   0.61458325
H   -2.78494278   1.51834909  -0.48952263
H   -2.42931892  -0.10931109  -1.08181813
H   -0.36041860   1.84858814   0.01787791
C    0.29475542  -0.09245563  -0.62671518
C    0.24903885  -0.79107034   0.72921566
C    1.51464615  -1.06965252   1.48321854
C    0.54510549  -0.03369829   1.99061626
H    0.83357102   1.00153971   1.90923106
H   -0.03502267  -0.26018186   2.87402553
H    2.44114863  -0.72630420   1.05560364
H    1.58868061  -2.00721843   2.01597336
O   -0.76506807  -1.75617881   0.72356505
H   -0.73374500  -2.23767098   1.55717444
O    1.62646892   0.31160207  -0.86566757
H    1.66729039   0.68788399  -1.75070322
H   -0.01047410  -0.84840528  -1.36895839
