23
Energy: 2.656
C   -0.41418089   1.80829327   1.06859420
H   -1.39774228   1.90476646   0.61363578
H    0.33248826   2.14566544   0.35655453
H   -0.37222284   2.44861092   1.94660256
C   -0.14974533   0.35838918   1.46395144
C   -1.05279668  -0.05589647   2.62647762
H   -0.81053354   0.52835874   3.51082117
H   -2.10228008   0.12051349   2.39225461
H   -0.92115611  -1.10946036   2.86819015
H    0.89373494   0.26362118   1.77963013
C   -0.33215487  -0.59488568   0.26229459
C    0.71720688  -0.33727086  -0.81884479
C    0.46755516  -0.84829135  -2.20998145
C    0.44940866   0.62745820  -1.93025064
H   -0.50444174   1.12758341  -1.93965841
H    1.28304761   1.21933405  -2.27354913
H   -0.47435587  -1.33516274  -2.40288243
H    1.31042808  -1.25096875  -2.75159127
O    2.02786063  -0.37690533  -0.33155450
H    2.28047193  -1.29476032  -0.17713465
O   -1.60776943  -0.50293381  -0.32605157
H   -2.26196470  -0.58602244   0.37600027
H   -0.17368076  -1.62943674   0.63150349
