23
Energy: 0.948
C    0.78070527   1.28275267  -1.70126679
H    0.72280681   2.27863763  -2.13458661
H    0.98757160   0.57555954  -2.50172871
H    1.60056786   1.26094189  -0.98918445
C   -0.54099757   0.93646907  -1.01892092
C   -1.66259053   0.87042772  -2.05337342
H   -2.62889444   0.74470746  -1.56993742
H   -1.68839028   1.78198306  -2.64572966
H   -1.49755231   0.02545788  -2.71755815
H   -0.77428023   1.71387231  -0.28387159
C   -0.47052488  -0.40916434  -0.25535678
C    0.30335991  -0.29348375   1.05599937
C   -0.30143007   0.44534900   2.21299165
C   -0.16479491  -1.05596747   2.26042110
H   -1.05608475  -1.65682131   2.17632051
H    0.57914089  -1.47661427   2.92235737
H   -1.28794282   0.86506611   2.09521223
H    0.34966289   1.03526694   2.84165231
O    1.67962543  -0.19339736   0.80838996
H    2.14942780  -0.23973728   1.64690094
O    0.05504601  -1.44851846  -1.04104137
H    1.00717079  -1.29889335  -1.09717145
H   -1.49506209  -0.71456386  -0.01388607
