23
Energy: 3.093
C    1.20296314   1.75779907  -0.12581630
H    1.43464345   1.72144112   0.93628227
H    0.20538640   2.17384828  -0.23968049
H    1.91215019   2.42248357  -0.61412828
C    1.29286309   0.35663631  -0.72603157
C    2.74043437  -0.13663862  -0.69975911
H    2.80646643  -1.16426432  -1.05280749
H    3.35699513   0.48475480  -1.34501739
H    3.15459063  -0.08154103   0.30609260
H    0.96282118   0.37956110  -1.76988061
C    0.36602403  -0.63559364   0.01475314
C   -1.10854981  -0.25092787  -0.11940889
C   -2.10886142  -0.87844633   0.80382466
C   -1.76722985   0.57746351   0.94413881
H   -1.17042518   0.87193306   1.79135239
H   -2.50332123   1.30270065   0.62912452
H   -1.73959259  -1.55854849   1.55339364
H   -3.06609464  -1.13802562   0.38070763
O   -1.51793988  -0.08578497  -1.44618773
H   -1.33246425   0.81738465  -1.72822913
O    0.67065899  -0.73318699   1.38700384
H    1.58454155  -1.02588126   1.46636767
H    0.48366407  -1.62329211  -0.46687667
