23
Energy: 2.739
C   -1.20725588   0.79500003   1.61212660
H   -1.75885785   1.03558876   0.70570982
H   -1.38463569   1.58527307   2.33822201
H   -1.60537587  -0.12905597   2.02863438
C    0.29286118   0.66847700   1.34145656
C    1.02778921   0.25728197   2.61544202
H    0.74155822  -0.75160897   2.90348825
H    2.10302605   0.27347217   2.45636601
H    0.78674558   0.93624527   3.43002058
H    0.67927842   1.64060928   1.01756439
C    0.60390339  -0.34433278   0.21421982
C    0.03742450   0.10536439  -1.14117851
C   -0.07807874  -0.89903259  -2.24680890
C   -1.32088516  -0.34537074  -1.60733847
H   -1.91525661  -0.99979161  -0.98759272
H   -1.90387268   0.36233388  -2.17879909
H    0.20054459  -1.91630944  -2.02196553
H    0.17202778  -0.56763229  -3.24136480
O    0.46200551   1.38111994  -1.52570384
H   -0.06446146   2.04749467  -1.06927457
O    0.21018709  -1.65191481   0.54362210
H   -0.73801624  -1.64773788   0.71679227
H    1.69424667  -0.39919520   0.10224186
