23
Energy: 2.919
C   -2.43550768   0.11226823   0.40770956
H   -2.59024939   1.18838928   0.43046957
H   -3.28342314  -0.36427178   0.89476971
H   -2.41378143  -0.21635515  -0.62844617
C   -1.14565955  -0.26875831   1.12884280
C   -0.92875774  -1.77925205   1.04977025
H   -0.99702848  -2.13076580   0.02058275
H    0.03443879  -2.05766490   1.47111867
H   -1.70342531  -2.28867567   1.61954161
H   -1.24997001  -0.00187606   2.18666382
C    0.06852865   0.56927045   0.64840369
C    0.63388012   0.22031929  -0.72610753
C   -0.08560539   0.58200298  -1.99263216
C    1.16479494   1.31726726  -1.60366384
H    1.08187818   2.33644930  -1.26199343
H    2.06728018   1.10333185  -2.15377669
H   -1.02358122   1.10866364  -1.92444580
H   -0.02410222  -0.11311389  -2.81702955
O    1.42356086  -0.93924231  -0.71309768
H    0.85839578  -1.71689870  -0.78429046
O    1.11380308   0.48262720   1.59472378
H    1.72841518  -0.19320753   1.27574881
H   -0.24987143   1.61950661   0.63785066
