23
Energy: 1.658
C    0.58827318  -1.54553905   1.40809506
H   -0.08005895  -0.89961795   1.97135670
H    1.34079006  -1.93284015   2.09085009
H    0.02530810  -2.39519817   1.02273090
C    1.27017996  -0.77382313   0.27874117
C    2.18243544  -1.69849078  -0.52338470
H    2.75114462  -1.13225564  -1.25670036
H    2.87965199  -2.20990828   0.13590239
H    1.59056113  -2.44303300  -1.05158144
H    1.86467806   0.03179694   0.71698731
C    0.25362934  -0.09937932  -0.66770142
C   -0.51873024   1.01913429   0.04001964
C   -1.77982413   1.53732896  -0.58235956
C   -1.83885017   0.76339403   0.71164757
H   -2.26936392  -0.22581868   0.69269391
H   -2.05647313   1.30834753   1.61952189
H   -2.12942334   1.04724153  -1.47728121
H   -1.97414093   2.59980115  -0.55467123
O    0.38487763   1.91231815   0.62344718
H   -0.09953226   2.68576605   0.93152487
O   -0.60507047  -1.01543944  -1.29568125
H   -1.03323754  -1.54090751  -0.61018620
H    0.81313999   0.37178153  -1.48550442
