23
Energy: 3.059
C    0.34534163  -0.99750006   2.59261085
H    0.75940771  -0.55335037   3.49483356
H    0.87772086  -1.92318129   2.38559003
H   -0.70045541  -1.23698266   2.76732352
C    0.47887600  -0.03830375   1.41061493
C    1.95224712   0.19830715   1.08886361
H    2.41255926  -0.71232447   0.70967642
H    2.07577867   1.00167528   0.36546147
H    2.47986937   0.48814859   1.99533549
H    0.02938452   0.92328081   1.69129654
C   -0.32656798  -0.59518889   0.21361990
C   -0.10620088   0.19293663  -1.08685449
C   -1.27327971   0.70044511  -1.87690989
C   -0.39874123   1.67055106  -1.13282326
H   -0.79384547   2.15375791  -0.25118451
H    0.26313692   2.29548125  -1.71328273
H   -2.26960345   0.49999332  -1.51647725
H   -1.17320530   0.66000174  -2.94960023
O    0.95067016  -0.28648807  -1.86537777
H    1.78590466  -0.13072264  -1.41029607
O   -1.68969557  -0.69032031   0.55528783
H   -2.00423135   0.18703366   0.80317811
H   -0.01539025  -1.62787148   0.01557737
