23
Energy: 1.466
C    0.44031332  -1.25264687  -1.75838863
H    1.33903809  -0.73553041  -2.08896539
H   -0.42434921  -0.68069636  -2.08108879
H    0.41056577  -2.23087353  -2.23262711
C    0.44051662  -1.40762966  -0.24000042
C    1.60287308  -2.29671079   0.20665745
H    2.55743150  -1.90193930  -0.13997894
H    1.63438656  -2.38204259   1.29152470
H    1.48861692  -3.29427525  -0.21036360
H   -0.49586853  -1.88437933   0.06624639
C    0.49445112  -0.04207884   0.48067360
C   -0.75894102   0.79848241   0.25850395
C   -2.05995714   0.37312538   0.85674351
C   -1.33561668   1.56558195   1.42028109
H   -0.86891125   1.47657442   2.38881070
H   -1.74478522   2.54096448   1.20999343
H   -2.08731152  -0.53531812   1.43865795
H   -2.94706677   0.55546572   0.27203466
O   -0.81789533   1.40045313  -0.99752774
H    0.06308206   1.75910403  -1.16897820
O    1.58151062   0.75806330   0.05053526
H    2.38756797   0.23879776   0.13275594
H    0.58450102  -0.23567544   1.56269325
