23
Energy: 0.686
C   -0.61202065  -2.62818448  -0.74958921
H   -1.55145483  -2.45825060  -1.27098128
H   -0.83585787  -2.98478694   0.25220600
H   -0.05294036  -3.39475869  -1.28103292
C    0.19188096  -1.33222227  -0.67624160
C    0.40735357  -0.76435010  -2.07666074
H   -0.54850185  -0.51228050  -2.53062178
H    1.02391531   0.13126540  -2.06358139
H    0.89698516  -1.50598578  -2.70407864
H    1.16468361  -1.55754927  -0.22139413
C   -0.53776658  -0.32872983   0.24551222
C    0.20638599   0.99715232   0.36903198
C   -0.11923638   2.14941958  -0.53777784
C   -0.52604754   2.18993435   0.90749985
H   -1.56777568   2.07320917   1.15959466
H    0.02311362   2.84340155   1.56631973
H   -0.88449656   2.01595532  -1.28612881
H    0.69518121   2.78857399  -0.84555834
O    1.52709194   0.84590251   0.81601342
H    2.09034764   0.60411000   0.07191935
O   -0.72300170  -0.87562101   1.53413998
H    0.11779667  -0.79651074   2.00248071
H   -1.54397858  -0.14734534  -0.14613572
