23
Energy: 0.0
C    0.35766210  -2.28487797   1.57035947
H    1.17297629  -2.61890517   2.20751083
H    0.15542259  -3.05747622   0.83139992
H   -0.53302888  -2.15272833   2.17899287
C    0.72478241  -0.97586773   0.87585713
C    1.89958867  -1.18774500  -0.07342752
H    1.61900739  -1.85782190  -0.88346614
H    2.23256556  -0.24579388  -0.49878380
H    2.73232222  -1.63300025   0.46613028
H    1.01076072  -0.23677096   1.63207688
C   -0.51123531  -0.42080692   0.13914723
C   -0.21387136   0.89454594  -0.57080781
C    0.21916729   0.91733451  -2.00635088
C   -1.16538582   1.37752083  -1.62670269
H   -2.00483288   0.75042928  -1.88038047
H   -1.38175789   2.43500715  -1.67815831
H    0.32250418  -0.01918575  -2.53034752
H    0.93582300   1.66656690  -2.31193969
O    0.32500568   1.81234342   0.34174001
H    0.45163374   2.65574248  -0.10432255
O   -1.59288509  -0.23683662   1.02545439
H   -1.34639809   0.47682190   1.62655233
H   -0.86020589  -1.15339030  -0.59567224
