23
Energy: 2.272
C    1.59942931  -0.51569332   1.32419058
H    1.99877057  -0.85368229   0.37292510
H    2.05084911  -1.10568474   2.11845036
H    1.87597281   0.52717727   1.46474600
C    0.08148262  -0.67052929   1.35334607
C   -0.45634520  -0.39861215   2.75872077
H   -1.54414482  -0.43543612   2.77287503
H   -0.08189303  -1.14905351   3.45069549
H   -0.13291649   0.57622877   3.12282208
H   -0.18225043  -1.69228011   1.06832252
C   -0.60106614   0.25399817   0.32177709
C   -0.24021736  -0.13550033  -1.10628260
C   -0.46768792   0.84954268  -2.21346187
C    0.93534178   0.48838359  -1.79500475
H    1.49802649   1.23121465  -1.25515932
H    1.52595075  -0.12732625  -2.45853348
H   -0.83114861   1.82809157  -1.94692276
H   -0.83310989   0.47971163  -3.16100517
O   -0.53903018  -1.48734307  -1.31123748
H   -0.37285407  -1.69701536  -2.23645198
O   -0.27636461   1.61302074   0.50372364
H   -0.47495636   1.83801890   1.41874304
H   -1.69321837   0.11528098   0.42102312
