23
Energy: 2.807
C   -1.67561805  -1.91548575   0.21107720
H   -2.62384336  -1.57283699  -0.19595238
H   -1.86617900  -2.76814258   0.85900400
H   -1.04078941  -2.23149159  -0.61036455
C   -0.99682314  -0.80015746   1.00062700
C    0.27881866  -1.31746998   1.66209707
H    0.03578292  -2.12747199   2.34609620
H    0.96385965  -1.69828655   0.90995653
H    0.78173928  -0.53784675   2.23193700
H   -1.68740494  -0.46627714   1.78568999
C   -0.74388683   0.44646428   0.12165448
C    0.50614688   0.35732682  -0.76099120
C    1.09077251   1.63011654  -1.29752311
C    1.84757040   0.82616498  -0.27009727
H    1.94588834   1.23363365   0.72375355
H    2.72095074   0.27861822  -0.59507995
H    0.64199095   2.55791868  -0.98000533
H    1.45899001   1.64189554  -2.31346998
O    0.44684519  -0.76644013  -1.59081159
H    1.13992644  -0.69448797  -2.25593514
O   -0.72716932   1.61820245   0.90363568
H   -0.07851364   1.50327651   1.60724697
H   -1.60077839   0.57283912  -0.55133577
