23
Energy: 1.501
C   -1.12264182  -1.27798973   1.39142533
H   -1.81570113  -1.00095154   0.60138341
H   -1.66115892  -1.28386664   2.33612889
H   -0.76077152  -2.28933918   1.21078312
C    0.03889761  -0.28709593   1.46475628
C    1.08982061  -0.76592694   2.46421430
H    1.85527391  -0.00725240   2.61057416
H    0.62901481  -0.98327145   3.42480253
H    1.57061001  -1.66885964   2.09446937
H   -0.35248190   0.67982459   1.79491443
C    0.69823918  -0.06233529   0.08546210
C   -0.24408647   0.62339972  -0.91185927
C   -0.77956810   1.99347156  -0.63330708
C    0.24712106   1.79842453  -1.71224083
H    1.25032988   2.15640974  -1.54168072
H   -0.08309675   1.87700388  -2.73733636
H   -0.48036946   2.48729387   0.27760970
H   -1.79573228   2.19212464  -0.93465076
O   -1.11786880  -0.26466995  -1.55494182
H   -0.62762537  -0.72237394  -2.24873194
O    1.18802593  -1.26215705  -0.47190355
H    0.43765453  -1.86644477  -0.53944304
H    1.58099240   0.57128567   0.22252945
