23
Energy: 1.17
C    2.49721777   0.32109497  -1.23035405
H    2.20991928  -0.04037896  -2.21354335
H    3.48872899  -0.05659426  -0.99376019
H    2.53771386   1.40834232  -1.25601017
C    1.48967337  -0.14779283  -0.18379055
C    1.85280855   0.39165984   1.19538446
H    2.87306061   0.10803845   1.44171652
H    1.78601698   1.47765471   1.21052456
H    1.19023271  -0.01127529   1.95538727
H    1.50167831  -1.24160994  -0.15229587
C    0.07393820   0.28305124  -0.60058073
C   -0.99543824  -0.12012263   0.40649066
C   -1.41987928   0.78688755   1.51315074
C   -2.33329768   0.57717755   0.33523008
H   -2.46318856   1.39177579  -0.36252944
H   -3.21718048  -0.02143125   0.49080796
H   -0.92448594   1.73914795   1.61823521
H   -1.69296592   0.31966949   2.44564906
O   -0.99843655  -1.48946842   0.68431582
H   -0.85272186  -1.95112849  -0.15230174
O   -0.21652543  -0.35993294  -1.83559953
H   -1.08624029  -0.07060460  -2.13374533
H    0.05232345   1.37624655  -0.72967487
