23
Energy: 1.749
C    1.39115254  -1.15264350  -1.21123421
H    0.77516542  -2.02146844  -1.44059396
H    1.77315380  -1.23851659  -0.19754778
H    2.23686397  -1.15896825  -1.89475714
C    0.60419596   0.14571286  -1.38339927
C    0.06488314   0.26054240  -2.80703447
H   -0.40191705   1.23004729  -2.96524170
H    0.86927450   0.14238772  -3.52894972
H   -0.68171295  -0.51016076  -2.98608279
H    1.27946989   0.98300782  -1.18229706
C   -0.56030203   0.26123815  -0.37388640
C   -0.04542583   0.41584944   1.06407757
C   -0.98825716   0.14499140   2.20387309
C    0.18088034  -0.76684354   1.95572370
H   -0.01083272  -1.76175326   1.58420958
H    1.01879646  -0.70350863   2.63226873
H   -1.97489592  -0.21533711   1.95752279
H   -0.94558170   0.79995673   3.06047894
O    0.87272803   1.46183141   1.20958324
H    0.40721431   2.30303072   1.13691517
O   -1.49622658  -0.77947126  -0.49189631
H   -1.02978162  -1.61472888  -0.37436750
H   -1.12952394   1.17059821  -0.61744329
