23
Energy: 2.257
C   -0.56528353  -2.08852847  -1.76675638
H   -1.17946005  -2.13456790  -2.66304085
H   -0.90249564  -2.85734119  -1.07554133
H    0.46612877  -2.30133248  -2.03735777
C   -0.67722873  -0.71218017  -1.11248362
C   -2.10108276  -0.47389073  -0.62345933
H   -2.80401061  -0.65033169  -1.43477750
H   -2.33472505  -1.14803401   0.19593021
H   -2.22966558   0.54462727  -0.27089658
H   -0.43024986   0.05243078  -1.86164391
C    0.36097084  -0.60327121   0.02339439
C    0.22910788   0.69632599   0.82537872
C    1.44603819   1.51560239   1.13913733
C    0.42217217   2.02865577   0.15693763
H    0.68285759   2.05741521  -0.89037796
H   -0.20737299   2.85259486   0.46152892
H    2.40144768   1.18069945   0.76767742
H    1.50051098   1.98997338   2.10855956
O   -0.76055440   0.54768399   1.79991124
H   -0.78002023   1.33903863   2.34879689
O    1.66502549  -0.77908110  -0.47722818
H    1.80094181  -0.14989765  -1.19569157
H    0.20860593  -1.42448463   0.73188804
