23
Energy: 1.919
C    2.20465468   0.59517648  -0.42239289
H    2.06252867   1.66273209  -0.57370867
H    3.18983090   0.32622054  -0.79644386
H    2.17419130   0.38481462   0.64310007
C    1.13520301  -0.20666376  -1.15713090
C    1.34597767  -1.70390482  -0.93981137
H    1.19734889  -1.96620530   0.10319151
H    0.65757687  -2.28294302  -1.55127733
H    2.35963924  -1.97434974  -1.22747451
H    1.22693812  -0.00861804  -2.23167673
C   -0.28871912   0.26753718  -0.77487370
C   -0.59765198   0.27369806   0.71950992
C   -0.23393733   1.45176233   1.57536703
C   -1.67442121   1.19866432   1.21292002
H   -2.15076590   1.85661805   0.50406269
H   -2.33941443   0.84299897   1.98730872
H    0.26683947   2.29056824   1.12027789
H    0.07334423   1.26414794   2.59441280
O   -0.53068099  -1.01888855   1.25779917
H   -0.86483867  -0.99542424   2.16018660
O   -1.27581938  -0.47495029  -1.45359608
H   -1.30894358  -1.34292400  -1.03308155
H   -0.40393203   1.29631441  -1.13609888
