23
Energy: 3.166
C   -0.89030432  -0.82731410  -1.94358356
H   -1.88186551  -0.39473965  -1.83445259
H   -0.93465403  -1.59066248  -2.71723774
H   -0.21017925  -0.04754266  -2.27857189
C   -0.42369398  -1.44811645  -0.62963915
C    0.96530405  -2.07068145  -0.77462517
H    1.23012958  -2.61098647   0.13115080
H    0.96272199  -2.77798485  -1.60139166
H    1.72722066  -1.32015989  -0.96594903
H   -1.11395307  -2.25969801  -0.37255602
C   -0.51679281  -0.43710976   0.54408587
C    0.10016535   0.93285998   0.26912166
C   -0.74249794   2.03878840  -0.29491213
C   -0.32536683   2.07884731   1.14638565
H   -1.06401050   1.89055105   1.90855082
H    0.43816041   2.78562108   1.43030731
H   -1.77598453   1.83510310  -0.52684531
H   -0.26856960   2.73273656  -0.97443552
O    1.46255296   0.89602463  -0.06032580
H    1.56374858   0.97107104  -1.01544461
O    0.03434395  -0.97522062   1.72586647
H    0.99088161  -0.85930966   1.67099670
H   -1.57956010  -0.28190712   0.76515159
