23
Energy: 2.242
C   -2.34206173  -0.00970612  -0.09856328
H   -2.15602404   0.75367198   0.65287131
H   -3.19768466  -0.60269439   0.21714937
H   -2.59330616   0.48120959  -1.03607191
C   -1.12705680  -0.91561873  -0.29971352
C   -1.40966179  -1.90308530  -1.43013365
H   -1.49793276  -1.36588574  -2.37125227
H   -0.60477351  -2.62921014  -1.52021541
H   -2.33800471  -2.43889630  -1.24523325
H   -0.93800409  -1.47909017   0.62201589
C    0.15843538  -0.10677933  -0.62325911
C    0.86751131   0.36893169   0.64249835
C    1.79670188  -0.56630940   1.35762448
C    2.34966610   0.60779773   0.60034946
H    2.86919600   0.43184938  -0.32760549
H    2.72735510   1.44079217   1.17182623
H    1.93855264  -1.55651702   0.95276535
H    1.82184211  -0.52418020   2.43697201
O    0.11411985   1.27813589   1.39979623
H   -0.33217423   0.80771427   2.11229823
O   -0.08887708   0.97920946  -1.48327632
H   -0.44459768   1.69581719  -0.94317523
H    0.84684585  -0.76035406  -1.17044372
