23
Energy: 2.431
C   -0.20725426   1.37312397   1.93027856
H   -1.04108383   1.66825204   1.29912541
H    0.61643939   2.06596515   1.77166134
H   -0.51997151   1.44619599   2.96900775
C    0.21310180  -0.05954770   1.61969795
C   -0.95129441  -1.01991097   1.84826380
H   -0.65106281  -2.03630919   1.60680801
H   -1.24821816  -0.98862016   2.89417503
H   -1.80610837  -0.74164008   1.23810053
H    1.02400633  -0.34707154   2.29893563
C    0.81669536  -0.16916433   0.20481769
C   -0.10949532   0.18529241  -0.95282986
C   -0.32003414   1.59817462  -1.38736005
C    0.52841577   0.68392472  -2.22959962
H    1.59482716   0.85441420  -2.25476002
H    0.11035602   0.33542939  -3.16108816
H    0.16797027   2.38767293  -0.83852805
H   -1.30131584   1.84955053  -1.75674196
O   -1.19833643  -0.67824817  -1.09814754
H   -0.89152307  -1.56228491  -0.85528560
O    1.25463051  -1.51120038   0.03453804
H    1.72533299  -1.57516225  -0.80417194
H    1.68263897   0.51168789   0.16318533
