23
Energy: 1.949
C    2.11033272   1.75772963   0.52170402
H    2.17428703   2.84183097   0.46768674
H    2.90798294   1.33372289  -0.08437236
H    2.26608558   1.44874196   1.55247855
C    0.75147435   1.28043461   0.01020656
C    0.58793593   1.63969955  -1.46265752
H   -0.38291640   1.32954134  -1.83557696
H    0.68492659   2.71528289  -1.59233231
H    1.35591897   1.15085133  -2.05796877
H   -0.03699185   1.78574278   0.58280954
C    0.60412271  -0.23581921   0.25909870
C   -0.73563470  -0.78781026  -0.25123787
C   -1.53237636  -1.72891210   0.61208210
C   -2.02620143  -0.33196292   0.35891812
H   -1.99732484   0.38503203   1.16584929
H   -2.86443325  -0.20665941  -0.30785716
H   -1.15028961  -1.98157667   1.58856754
H   -2.04527795  -2.53637948   0.11206075
O   -0.77111880  -1.01152572  -1.63164234
H   -0.20588776  -1.76315266  -1.84378508
O    0.80613599  -0.54521011   1.61941090
H    0.19357538  -0.01563329   2.14301093
H    1.40866137  -0.76356077  -0.26977696
