23
Energy: 2.081
C   -0.61493039  -1.80180904  -1.11849904
H    0.07322507  -1.33337515  -1.81627298
H   -1.37483414  -2.33235595  -1.68739631
H   -0.07262536  -2.52092884  -0.50971840
C   -1.27664058  -0.75796135  -0.22331697
C   -2.31116761  -1.41762503   0.68662877
H   -3.04435470  -1.95827659   0.09355930
H   -1.81774408  -2.11811000   1.35533611
H   -2.83254692  -0.67336179   1.28516186
H   -1.77707826  -0.01577524  -0.85430526
C   -0.25318444   0.00803647   0.63720440
C    0.71034890   0.86492142  -0.18098705
C    0.22552224   2.07990522  -0.90116821
C    1.08193000   2.23405492   0.32889277
H    0.61975297   2.60237462   1.23289610
H    2.10133828   2.55614334   0.18520089
H   -0.82106951   2.33383552  -0.83340702
H    0.67771332   2.29664637  -1.85531328
O    1.72182676   0.12090161  -0.79573991
H    1.82764588  -0.68498391  -0.26870296
O    0.50119112  -0.92678767   1.39467967
H    1.02372642  -0.44314160   2.04327922
H   -0.81657290   0.67023398   1.31293584
