23
Energy: 1.34
C    0.31546577   2.64307460   0.87441148
H    1.38609601   2.76397490   0.72345813
H    0.14004559   2.45291814   1.93048318
H   -0.18000866   3.57087404   0.59869067
C   -0.20653657   1.48683962   0.02428247
C    0.15296383   1.69680062  -1.44277555
H   -0.20878077   2.66749855  -1.77388721
H    1.23179238   1.66801240  -1.57952944
H   -0.30104103   0.93030598  -2.06310840
H   -1.29927708   1.44304384   0.10922548
C    0.34767851   0.15445756   0.56203194
C   -0.12473093  -1.04290611  -0.26114249
C    0.70081901  -1.55005856  -1.40783500
C    0.62666794  -2.33682820  -0.13176964
H    1.48917303  -2.36011946   0.51545155
H    0.05477727  -3.25340682  -0.13803563
H    1.61852375  -1.03825862  -1.64855975
H    0.16592210  -1.93053777  -2.26390318
O   -1.51907012  -1.09935778  -0.40559216
H   -1.88285967  -1.68810408   0.26472797
O   -0.01066143  -0.03327770   1.91947519
H   -0.97024856   0.04591393   1.98073918
H    1.44158921   0.17819954   0.55820945
