23
Energy: 3.143
C   -0.82860627   0.22136426   2.66548162
H   -1.66523620   0.91129056   2.56697840
H   -0.27623688   0.50367511   3.55861542
H   -1.21456006  -0.78701296   2.81131802
C    0.09936668   0.27303510   1.44880980
C    1.38069816  -0.50002645   1.74498538
H    1.14900098  -1.53544808   1.98721501
H    2.04514433  -0.48992268   0.88737050
H    1.89707736  -0.05536695   2.59255873
H    0.35322273   1.31845102   1.24789626
C   -0.60293450  -0.28779140   0.19200098
C    0.27587927  -0.18108354  -1.05763183
C   -0.29543923   0.37598234  -2.33180922
C    0.72332249   1.15872091  -1.55537170
H    0.38771781   2.03464104  -1.02435009
H    1.72488949   1.22489881  -1.94975838
H   -1.31638208   0.71825349  -2.32021940
H    0.02140426  -0.08840060  -3.25381006
O    1.21043403  -1.21633742  -1.17809533
H    0.75872453  -2.01741929  -1.46795305
O   -1.81908759   0.37634193  -0.07538819
H   -2.36728518   0.32571204   0.71460237
H   -0.80060816  -1.36353277   0.36174401
