23
Energy: 2.801
C    1.30523625  -1.12944078  -1.64342841
H    1.05330580  -0.18788925  -2.12312162
H    0.58974028  -1.88762120  -1.95371053
H    2.29252153  -1.43353916  -1.98387723
C    1.30833210  -0.96953974  -0.12623469
C    2.28396312   0.13536772   0.27773066
H    1.94267548   1.09924240  -0.08897828
H    2.40057123   0.19103306   1.35908525
H    3.26315026  -0.07222824  -0.14800846
H    1.65078547  -1.91091805   0.32176633
C   -0.11935807  -0.75091222   0.42560922
C   -0.81951199   0.52831964  -0.03679994
C   -1.46397973   0.61199816  -1.38814660
C   -2.32009908   0.51019493  -0.16016759
H   -2.84159272  -0.41392850   0.03285738
H   -2.85563573   1.39375558   0.15437590
H   -1.40701398  -0.24081536  -2.04432610
H   -1.41558714   1.56581833  -1.88970851
O   -0.24590531   1.71190475   0.44994631
H   -0.58701564   1.87896151   1.33606742
O   -0.12616526  -0.80367069   1.84037965
H    0.47646257  -0.11956090   2.15612986
H   -0.73659623  -1.59993211   0.11162466
