23
Energy: 2.516
C   -1.76571165   1.51980599  -0.98944970
H   -1.21990110   1.19434697  -1.87040691
H   -1.45083425   2.52878260  -0.73102310
H   -2.82618155   1.54436522  -1.22986995
C   -1.51923024   0.55957890   0.17152600
C   -1.97236539  -0.84824624  -0.20899130
H   -1.40810392  -1.20575574  -1.06592062
H   -1.84317323  -1.54837857   0.61467993
H   -3.02767028  -0.83499000  -0.47185927
H   -2.11146385   0.90001950   1.03052436
C   -0.04807579   0.59675383   0.65039484
C    0.93374926  -0.15603985  -0.25771769
C    2.23896327  -0.61980341   0.33224405
C    1.20108446  -1.62078432  -0.09075412
H    0.67685897  -2.17714547   0.67050853
H    1.38260293  -2.18012981  -0.99515233
H    2.39543637  -0.46130026   1.38771741
H    3.12520672  -0.52470908  -0.27627938
O    0.95680483   0.30372586  -1.57898038
H    1.35661117   1.18084086  -1.59941943
O    0.05631711   0.16500229   1.98776110
H   -0.30286582  -0.72733447   2.04628774
H    0.27276176   1.64833486   0.68155137
