18
Energy: 4.619
O   -1.56079626  -1.14574850   0.76503103
H   -1.58412271  -1.21302916   1.73085942
C   -0.34104784  -0.55016966   0.41395536
C   -0.01885176   0.61034730   1.35148723
C   -1.08098488   1.50008398   1.82554687
H   -2.09959811   1.31976645   1.50220943
O   -0.52823869   0.50956658   2.64925353
H   -0.84504084   2.52156916   2.09893203
H    0.99646272   0.99281894   1.28459220
H    0.48064205  -1.28327540   0.47835166
C   -0.46503966  -0.07329665  -1.04509141
N    0.71711583   0.60338521  -1.52118734
C    1.71054792  -0.05538677  -2.15362670
O    1.71123960  -1.22968081  -2.41222120
H    2.54009467   0.62288759  -2.42947327
H    0.82259600   1.58074983  -1.30521108
H   -1.33052663   0.58671646  -1.13086308
H   -0.62081164  -0.95461241  -1.67097780
