18
Energy: 3.285
O   -0.81785792  -1.29960800   1.89459251
H   -1.59873956  -0.83169726   1.57307524
C    0.32247715  -0.68857446   1.32721768
C    0.17369549   0.82205218   1.43009586
C    0.62272784   1.79663655   0.43584397
H    1.10316410   1.47675059  -0.47896970
O   -0.73097930   1.45523613   0.56806372
H    0.88017012   2.79509416   0.77187849
H    0.10293157   1.15493380   2.46574286
H    1.16518499  -0.99489259   1.95907975
C    0.58508369  -1.23495578  -0.09120510
N   -0.46609680  -0.93031046  -1.03231379
C   -0.26281038  -0.17073021  -2.12154853
O    0.79407429   0.32038138  -2.43629388
H   -1.18170617  -0.04736683  -2.72075715
H   -1.38562528  -1.28793872  -0.83039035
H    0.68763602  -2.32194486  -0.00264733
H    1.51113344  -0.82020264  -0.49284686
