18
Energy: 1.861
O    0.04486293   2.00654255   1.32403449
H   -0.43630079   2.65440282   0.79622882
C   -0.06755389   0.74612388   0.71091637
C    0.72424893  -0.22268472   1.57041553
C    0.07691658  -1.18961382   2.45711498
H   -1.00475493  -1.23812078   2.49009873
O    0.66120650  -1.58029054   1.24588488
H    0.58907351  -1.52091791   3.35203923
H    1.70944321   0.14988568   1.83947768
H   -1.12034871   0.42264706   0.66613006
C    0.49647822   0.75726174  -0.72680720
N    0.22821862  -0.48484881  -1.40803788
C   -0.72537851  -0.57240393  -2.35441146
O   -1.35257127   0.35760407  -2.79806773
H   -0.85422277  -1.60840779  -2.71603355
H    0.60881877  -1.31983788  -0.98840499
H    1.57413359   0.94357934  -0.69237858
H    0.01061816   1.54752691  -1.30710131
