18
Energy: 3.451
O    1.69059389   1.15302334  -0.36037960
H    1.45217532   1.77819983  -1.05584174
C    0.75018172   0.10142433  -0.34307492
C    0.68505681  -0.60333079  -1.68740256
C    1.55666677  -1.73901610  -1.99741175
H    2.24462484  -2.09866067  -1.24177865
O    0.19831676  -1.90749729  -1.71415794
H    1.85067728  -1.92273406  -3.02437962
H    0.35329358   0.02866511  -2.51202132
H    1.11133050  -0.59744920   0.41820080
C   -0.64139951   0.61549495   0.06023764
N   -0.58323207   1.24060975   1.36022149
C   -1.40598495   0.89434439   2.36804062
O   -2.32162750   0.11724299   2.28343345
H   -1.15900928   1.43382223   3.30153859
H    0.21082468   1.83979388   1.52752505
H   -1.35069796  -0.21251056   0.11802553
H   -0.99486817   1.33784035  -0.68782733
