18
Energy: 4.56
O   -1.91357501  -0.96233662   0.35728603
H   -2.14170845  -1.81054557  -0.04047288
C   -0.51486372  -0.91741194   0.56663691
C   -0.21192511   0.36580502   1.31678295
C   -0.37974592   0.43653634   2.76940737
H   -0.70759986  -0.44449733   3.30818157
O    0.88291924   0.35256839   2.17625626
H   -0.62353921   1.38539066   3.23178537
H   -0.34208328   1.27450658   0.73518667
H   -0.18482257  -1.76401367   1.18688386
C    0.23582089  -0.96239726  -0.77535376
N   -0.26411216   0.06336021  -1.66050626
C    0.54746212   0.89533140  -2.33981204
O    1.74915651   0.83130646  -2.36114456
H   -0.02596015   1.65058050  -2.90987239
H   -1.26134713   0.21640905  -1.63845438
H    0.10189135  -1.95078756  -1.23513306
H    1.30218099  -0.78375693  -0.62292181
