18
Energy: 3.139
O   -1.79853789  -0.96086391   1.48591865
H   -1.59060500  -0.51953478   2.31861430
C   -0.76555573  -0.69336684   0.56569339
C    0.57991434  -1.10207628   1.15762788
C    1.86080070  -0.77429775   0.53056041
H    1.87904031  -0.18558540  -0.37928060
O    1.41299384  -0.11518638   1.68637952
H    2.70107408  -1.44313391   0.67664925
H    0.51324219  -2.01328331   1.75081289
H   -0.97488993  -1.34987075  -0.28802777
C   -0.78846685   0.78134966   0.09196020
N   -1.14194693   0.91636433  -1.30170519
C   -0.21393758   0.96462651  -2.27365489
O    0.97963167   0.96073617  -2.09816305
H   -0.66792515   1.03059823  -3.27918825
H   -2.11537950   0.82645128  -1.54415600
H    0.19438397   1.23663009   0.22960402
H   -1.51707185   1.33027300   0.69359978
