18
Energy: 4.444
O   -0.87100482   1.12148680  -0.66056791
H   -1.24556425   0.58339246  -1.37741468
C    0.51856659   0.93277956  -0.68888130
C    0.87380326  -0.29045759  -1.53148272
C    0.23883639  -1.57929832  -1.24854336
H   -0.46588123  -1.65146947  -0.42813904
O   -0.15217133  -0.78522039  -2.34060226
H    0.75900577  -2.49399967  -1.50482545
H    1.86153931  -0.27549461  -1.98192310
H    0.98656380   1.82054396  -1.14548967
C    1.05372004   0.76190902   0.76927163
N    0.02190804   1.00050626   1.74647095
C   -0.78797156  -0.00261462   2.14110642
O   -0.62459259  -1.17130827   1.88905946
H   -1.61142724   0.35768791   2.78327089
H   -0.31298725   1.94756054   1.82619461
H    1.88356666   1.44686542   0.94886657
H    1.39166560  -0.26617370   0.91845619
