18
Energy: 1.4
O   -0.02580599  -1.32337071   0.68164141
H   -0.77218052  -1.50966834   0.09346475
C    0.32959297   0.02829160   0.56718214
C   -0.54259239   0.90964425   1.45212479
C   -0.12957043   1.28276148   2.80574217
H    0.82513821   0.93602551   3.18229009
O   -0.07038079   2.19054926   1.74230116
H   -0.88300199   1.48684224   3.55722128
H   -1.60857409   0.84463404   1.24014117
H    1.36893268   0.09608829   0.91285187
C    0.22717795   0.52942364  -0.88693670
N    0.90212604  -0.34967667  -1.81459703
C    0.26193638  -1.40831513  -2.34320890
O   -0.90143891  -1.67354972  -2.15434832
H    0.91133417  -2.00548084  -3.00616528
H    1.90029534  -0.26338920  -1.91203489
H    0.63879338   1.53699850  -0.95704189
H   -0.82754973   0.54760049  -1.17920468
