18
Energy: 5.05
O    1.39999569  -0.00470336   1.37298054
H    0.91737500  -0.51904722   2.02987115
C    0.64242554   0.01948270   0.18254751
C    1.49224694   0.72181820  -0.85906889
C    2.09048669   0.00492315  -1.98567482
H    1.89973372  -1.05533247  -2.10013578
O    0.97948568   0.83943913  -2.14836075
H    3.01649676   0.36488951  -2.41862463
H    2.00095067   1.60129689  -0.47090714
H    0.40647668  -1.00115731  -0.14941030
C   -0.68603381   0.78474251   0.36232300
N   -1.49349432   0.21511305   1.42239354
C   -2.20061717  -0.91814353   1.24502061
O   -2.21702701  -1.57418591   0.23595854
H   -2.77366327  -1.19231719   2.15177188
H   -1.52763419   0.69712776   2.30516101
H   -1.23526370   0.72158264  -0.58024816
H   -0.47911761   1.82865338   0.59894452
