18
Energy: 5.14
O   -2.38145306  -0.09507261  -0.33090510
H   -2.94014103   0.67747416  -0.19188162
C   -1.04329664   0.21372917  -0.00769122
C   -0.56884759   1.49329573  -0.69602303
C    0.79995184   1.98048975  -0.51492085
H    1.49616097   1.38426415   0.06455646
O    0.36622081   1.42076926  -1.72499044
H    0.99247888   3.04693428  -0.53731399
H   -1.36039727   2.22688040  -0.85254140
H   -0.95700459   0.37961660   1.08096683
C   -0.18574768  -1.00490490  -0.39647128
N    0.13320936  -1.84551057   0.73274351
C    1.15360388  -1.53847534   1.55281501
O    1.90999160  -0.61033875   1.39978503
H    1.24741616  -2.25224809   2.39193686
H   -0.52699074  -2.55987970   0.99179000
H    0.75366175  -0.66520097  -0.83636708
H   -0.74081749  -1.58101392  -1.13660647
