18
Energy: 5.171
O   -0.58319282  -0.88863556   2.21196540
H   -0.17180917  -0.50949995   2.99726636
C   -0.82329647   0.13630105   1.26919146
C   -1.54681840  -0.52624968   0.10440757
C   -1.57969978   0.01542897  -1.25458886
H   -1.00495963   0.89750134  -1.50807785
O   -0.83067981  -1.12186025  -0.93263769
H   -2.45559781  -0.16156248  -1.86876392
H   -2.40180381  -1.10542881   0.44883986
H   -1.51881023   0.88068119   1.69656615
C    0.48005292   0.86427223   0.90128009
N    1.41595704   0.01048927   0.21121985
C    1.81167197   0.29180429  -1.04493052
O    1.57048846   1.31928692  -1.63031930
H    2.43214115  -0.51182774  -1.47606896
H    1.50062660  -0.93146225   0.56160719
H    0.93728379   1.23651835   1.82842060
H    0.27859453   1.71785794   0.25017993
