18
Energy: 2.672
O   -1.59013991  -0.99668607  -0.98352418
H   -2.03029084  -1.39540240  -0.22183365
C   -0.25878655  -0.69872389  -0.61982680
C    0.42792316  -1.95545199  -0.10390735
C    1.68283106  -1.95393287   0.64872843
H    2.16884429  -1.01736986   0.88883462
O    0.45332687  -2.18369013   1.27528742
H    2.33894437  -2.81396370   0.57883185
H    0.19668113  -2.83375153  -0.70587173
H    0.22512843  -0.38082236  -1.55068668
C   -0.23076330   0.45226896   0.39955466
N   -0.90787819   1.60822882  -0.13770435
C   -0.25584877   2.75888808  -0.38751919
O    0.89151526   2.98482349  -0.09477135
H   -0.90926715   3.50690699  -0.87243952
H   -1.82621213   1.44791655  -0.52249745
H    0.79224044   0.76274228   0.61643268
H   -0.71625258   0.12580187   1.32625509
