18
Energy: 2.399
O   -1.23180595  -1.13552196   0.49217111
H   -1.07553422  -2.05663663   0.74823873
C   -0.02014614  -0.63316374  -0.01686535
C    1.16653904  -1.18644380   0.76206709
C    1.09233922  -1.34397765   2.21575934
H    0.18221426  -1.06078611   2.73140791
O    0.97671834  -2.44062692   1.34908186
H    1.99981814  -1.30628969   2.80520628
H    2.13570251  -1.02707246   0.29925840
H    0.09046737  -0.92644761  -1.07507925
C   -0.06001873   0.89909170   0.07188039
N   -1.11597311   1.43079995  -0.75354095
C   -0.86138142   2.12145283  -1.87987727
O    0.23341285   2.45523941  -2.25856313
H   -1.78837456   2.38514087  -2.42132721
H   -2.04377553   1.09195083  -0.55425310
H    0.87858157   1.32300211  -0.29001128
H   -0.22490738   1.19134152   1.11312388
