18
Energy: 3.679
O   -1.55400357   0.84408240  -1.72954942
H   -2.21801751   0.20586223  -2.01364180
C   -0.45870981   0.16536748  -1.16185922
C   -0.88568280  -0.75624246  -0.03003448
C   -1.36055452  -2.11402529  -0.30897354
H   -1.39175638  -2.47135992  -1.33335481
O   -0.08192157  -1.87503636   0.20400550
H   -2.06002719  -2.58731965   0.36964853
H   -1.24963644  -0.24762215   0.85903116
H    0.05710876  -0.44414553  -1.92490627
C    0.50436929   1.24002028  -0.62636728
N    1.60011098   0.67103778   0.11670548
C    1.59255957   0.63593902   1.46528206
O    0.77507821   1.16981130   2.17037854
H    2.46268800   0.08648192   1.86687404
H    2.24566914   0.08264052  -0.38514403
H   -0.05002682   1.88948465   0.05484770
H    0.87814034   1.83477468  -1.46290998
