18
Energy: 0.813
O    1.20906553   0.97434419  -0.44675294
H    1.88863884   0.37663060  -0.07295689
C   -0.02384497   0.32516012  -0.34381683
C   -1.09428255   1.34803288  -0.68112583
C   -1.76225002   1.36752123  -1.98192845
H   -1.50245515   0.62056933  -2.72226557
O   -2.40204029   0.88531782  -0.83352588
H   -2.14269042   2.30297944  -2.37404082
H   -0.98426127   2.28412063  -0.13999039
H   -0.09166204  -0.51554529  -1.05669335
C   -0.28099968  -0.22882777   1.07808133
N    0.22302402  -1.57971986   1.26102549
C    1.51562331  -1.90849837   1.13080117
O    2.40457415  -1.15516318   0.80314738
H    1.70236838  -2.97230051   1.35821873
H   -0.44188390  -2.29386880   1.50751176
H   -1.35402505  -0.24153190   1.26629037
H    0.20591345   0.44342185   1.79305992
