18
Energy: 3.198
O   -0.88229713   2.06993151   0.84230326
H   -0.70089545   2.33263079   1.75131406
C   -0.24466809   0.84653881   0.56367357
C    1.26834926   1.02101545   0.58541545
C    2.08751889   0.58094923   1.71721685
H    1.61370429   0.08590169   2.55749107
O    2.06154732  -0.12809282   0.51134495
H    3.01666251   1.09219718   1.93983995
H    1.61834147   1.86350325  -0.00892868
H   -0.53320464   0.07204431   1.29170776
C   -0.70778397   0.39609799  -0.83323808
N   -0.21371277  -0.91737087  -1.16110957
C   -1.02611105  -1.99007399  -1.21830420
O   -2.22591271  -1.96676433  -1.11021018
H   -0.46062448  -2.92083675  -1.41071226
H    0.78673582  -1.04479083  -1.14103729
H   -0.37035229   1.12856679  -1.57216531
H   -1.79885032   0.35179405  -0.84542503
