18
Energy: 5.349
O   -0.75887025  -1.12744555  -1.58913028
H   -0.45952590  -1.36076568  -2.47383068
C    0.36372334  -0.95278623  -0.74876974
C   -0.08272564  -1.00390139   0.70777276
C   -1.49365394  -1.10318601   1.08226855
H   -2.23739311  -1.17006821   0.29876521
O   -0.62682324  -2.19598985   1.18144141
H   -1.82361379  -0.67532801   2.02222200
H    0.60302929  -0.50808567   1.39040468
H    1.09382818  -1.76024667  -0.90821153
C    1.04088992   0.40155791  -1.03772725
N    0.13386908   1.49293172  -0.77000293
C    0.28927937   2.29943558   0.29745548
O    1.23383448   2.28679570   1.04564448
H   -0.54365886   3.01892500   0.39587579
H   -0.74912086   1.46425880  -1.25583205
H    1.35372654   0.43843744  -2.08690644
H    1.91258385   0.53806540  -0.39569771
