18
Energy: 1.842
O    1.31096038   2.11540403  -0.05572786
H    0.51680838   2.58697765  -0.33519454
C    0.98375973   0.77248461   0.19382440
C    0.46924883   0.07180229  -1.05544889
C    1.39898035  -0.44779883  -2.05983551
H    2.46477889  -0.33540293  -1.90014750
O    0.73672984  -1.29529543  -1.16535469
H    1.08349689  -0.51605127  -3.09396798
H   -0.52612221   0.37438753  -1.37597664
H    1.92215922   0.29615490   0.50050413
C   -0.06021201   0.65345166   1.32687460
N   -0.56243789  -0.69043057   1.47327699
C   -1.74711921  -1.04863690   0.93785843
O   -2.53259434  -0.28910913   0.42779411
H   -1.94645624  -2.12751217   1.05542974
H    0.09340309  -1.40600152   1.74197909
H   -0.92419351   1.28098133   1.08568826
H    0.38060707   0.99671350   2.26645884
