18
Energy: 2.24
O    0.63435294  -0.69452688   2.24333094
H    0.02841998  -1.41883496   2.44017611
C    0.24874715  -0.07375930   1.04523755
C   -1.06778920   0.67318846   1.22335467
C   -1.11925936   2.11754143   1.45530346
H   -0.19508520   2.68153500   1.48070644
O   -1.45470250   1.56179292   0.21482312
H   -1.94388911   2.54098204   2.01589816
H   -1.87699825   0.06346396   1.62593932
H    1.04643830   0.63979854   0.81292686
C    0.12555468  -1.08531874  -0.11153568
N   -0.03552346  -0.42036647  -1.38094620
C    0.83312484  -0.59756267  -2.39397328
O    1.76280057  -1.36411934  -2.38957662
H    0.58229546   0.03711895  -3.26348532
H   -0.74431408   0.29621087  -1.43093451
H   -0.72814894  -1.75045618   0.07647039
H    1.03849978  -1.68406702  -0.17474498
