18
Energy: 0.0
O    0.24965381  -0.73193123  -1.79849542
H    0.25429748  -1.51395763  -1.20945732
C   -0.17226470   0.36930188  -1.05283210
C    0.94428479   0.87476162  -0.14038879
C    1.52308904   2.21113945  -0.27572621
H    1.13685473   2.88104217  -1.03455962
O    0.63641040   1.89905971   0.76178178
H    2.55045545   2.38416484   0.02218712
H    1.57775595   0.08301638   0.25636600
H   -0.42802418   1.14495265  -1.78480185
C   -1.43927577   0.06047774  -0.21582250
N   -1.15164015  -0.48519087   1.09937809
C   -0.50757276  -1.64484656   1.28175198
O   -0.09731410  -2.36761035   0.39979623
H   -0.39484911  -1.90085205   2.34898988
H   -1.30938728   0.11820469   1.88938007
H   -2.03634883  -0.66404346  -0.77931212
H   -2.01729754   0.97210776  -0.07362679
