18
Energy: 4.845
O   -1.88343959  -0.31074946  -0.96782869
H   -2.30375923   0.21758091  -1.65458534
C   -0.61888070   0.23275440  -0.65087070
C    0.25878826   0.37655201  -1.89137220
C    1.61517254   0.92269441  -1.82034726
H    2.03042230   1.18693007  -0.85515494
O    1.38043866  -0.43890738  -2.03485382
H    2.01566487   1.46973504  -2.66633955
H   -0.30467001   0.53489024  -2.81183101
H   -0.74920880   1.23086967  -0.19751070
C    0.01999595  -0.70664199   0.38196019
N   -0.75052662  -0.74112180   1.59981020
C   -0.41545428   0.01067736   2.66379098
O    0.57917506   0.68744435   2.75233152
H   -1.14945184  -0.08257756   3.48579592
H   -1.65956395  -1.17105658   1.54278647
H    1.01932234  -0.35478957   0.64029153
H    0.07807144  -1.70763884  -0.04922596
