18
Energy: 4.182
O   -1.68430072   1.30288761   0.27073869
H   -1.66925095   2.03414797   0.89728092
C   -0.87658375   0.24756192   0.75954038
C    0.56298708   0.69853205   0.94991165
C    0.94889353   1.47407642   2.13272360
H    0.20570295   1.70194527   2.89042614
O    1.27620806   0.12298264   1.99984309
H    1.77691453   2.17074698   2.07197001
H    1.12370960   0.84550807   0.02975794
H   -1.25559869  -0.11489432   1.72754552
C   -0.96671067  -0.89757228  -0.26121796
N   -0.66382142  -0.42715777  -1.59029241
C    0.37811569  -0.88318188  -2.30814351
O    1.13008937  -1.76170143  -1.97089443
H    0.46442816  -0.36115348  -3.28034838
H   -1.21162963   0.35591386  -1.90986461
H   -1.98124461  -1.30733159  -0.24123470
H   -0.24547426  -1.67755527  -0.01055351
