18
Energy: 4.416
O    0.10118648   1.17652325   0.83557683
H   -0.12588093   2.07638177   0.55541786
C    0.83105374   0.58458521  -0.20476157
C    0.40394528   1.14482285  -1.55738487
C   -1.01501776   1.36126389  -1.84573616
H   -1.74873899   1.11494195  -1.08736266
O   -0.15414884   2.42506141  -1.53359430
H   -1.36357565   1.32749056  -2.87024747
H    1.08435158   0.94526373  -2.37994794
H    1.90750065   0.79726651  -0.06453173
C    0.61045484  -0.93699157  -0.17253343
N    0.80001900  -1.46419374   1.15591668
C   -0.20388767  -2.07891968   1.81252600
O   -1.26311145  -2.38908594   1.33037346
H    0.07139316  -2.31556214   2.85638225
H    1.60735656  -1.14556397   1.66709290
H    1.29538815  -1.41682824  -0.88005988
H   -0.42072843  -1.17372616  -0.44737090
