18
Energy: 3.983
O   -0.26532774   1.77476454  -0.95009716
H    0.44972513   2.37606696  -1.18430746
C    0.27862976   0.56746125  -0.45062150
C    1.18949734  -0.07763942  -1.48136029
C    2.63710270   0.15216431  -1.46981044
H    3.07495299   0.76457626  -0.68887967
O    2.07867115  -1.05641086  -1.04557672
H    3.19492757   0.11394332  -2.39862876
H    0.70544975  -0.27717245  -2.43605713
H    0.84905840   0.75482975   0.47236695
C   -0.89949429  -0.36127480  -0.12296833
N   -1.77688610   0.24305788   0.84834335
C   -1.88289490  -0.21104735   2.11057002
O   -1.34914018  -1.19924481   2.54606668
H   -2.55560870   0.42319427   2.71869013
H   -2.17919541   1.12845610   0.58485889
H   -0.52260203  -1.29378815   0.30072528
H   -1.45633803  -0.56437271  -1.04234886
