18
Energy: 5.421
O    1.47671552   0.33854310   0.48130400
H    1.85127530   0.24053141   1.36755457
C    0.23344688   0.97310417   0.60795318
C   -0.60790021   0.31178707   1.69736551
C   -0.46953207  -1.11409700   2.00554516
H    0.24551944  -1.70954816   1.44869357
O    0.08690383  -0.12607601   2.82882408
H   -1.30966208  -1.65465866   2.42633357
H   -1.55911102   0.79917778   1.89870238
H    0.37064965   2.03192459   0.89159158
C   -0.48253245   0.94436540  -0.75066678
N   -0.68010038  -0.39555955  -1.24433222
C   -0.18310749  -0.79559768  -2.43235786
O    0.36448582  -0.08626664  -3.23456865
H   -0.36534175  -1.87251679  -2.60843253
H   -1.09705789  -1.06714564  -0.62080490
H    0.13936227   1.45054306  -1.49260724
H   -1.44108171   1.46726863  -0.65838027
