18
Energy: 1.748
O    1.35800720   0.98151137  -1.23348403
H    1.03296477   1.88300498  -1.37043267
C    0.24597788   0.12325946  -1.31234531
C   -0.94935806   0.70782192  -0.57074249
C   -0.77278574   1.51944349   0.63383832
H    0.22662457   1.70599764   1.00943640
O   -1.06728190   2.10157309  -0.60755596
H   -1.56484840   1.55164618   1.37092100
H   -1.87486889   0.15315952  -0.69009852
H   -0.04438708  -0.02145565  -2.36761929
C    0.64226287  -1.24330836  -0.73076873
N    1.06779169  -1.13966371   0.64338379
C    0.23677708  -1.41075444   1.66575321
O   -0.88216180  -1.84647143   1.55673793
H    0.71031450  -1.21863000   2.64650053
H    1.93865764  -0.65976900   0.80478069
H    1.45882950  -1.65459271  -1.32774962
H   -0.21797257  -1.91432230  -0.75872684
