18
Energy: 3.287
O   -1.96456519  -1.34815538  -0.20905116
H   -1.62550506  -2.22543788  -0.42573685
C   -0.91310168  -0.41718456  -0.31236521
C   -0.30468324  -0.44279568  -1.71237079
C    0.79604368   0.44329764  -2.09327289
H    1.22303164   1.10646896  -1.34980149
O    0.99209266  -0.92877581  -1.88337717
H    0.88016277   0.77389905  -3.12171516
H   -1.01664397  -0.74348574  -2.47961806
H   -1.38961267   0.55979901  -0.16553795
C    0.15327002  -0.62608191   0.78484836
N   -0.12359397   0.14653976   1.97213399
C    0.35787103   1.39748313   2.10113134
O    1.10323181   1.93413593   1.31935629
H    0.01577096   1.88308304   3.03301522
H   -0.84516936  -0.18379498   2.59204126
H    1.13038822  -0.30656315   0.41929089
H    0.20411453  -1.68602018   1.04514057
