18
Energy: 2.813
O    1.02660398  -0.84797309  -0.97301616
H    0.21336754  -1.37019387  -1.04054330
C    0.87934566   0.10096488   0.04779822
C    1.16308305  -0.53085373   1.41486901
C    1.47198140   0.27326463   2.59809924
H    1.45322349   1.35476844   2.52264968
O    0.23748823  -0.36502282   2.44759680
H    2.11937029  -0.12718300   3.36930579
H    1.59844551  -1.52495809   1.33807696
H    1.64368774   0.86250875  -0.16025313
C   -0.52482360   0.73494882   0.03090877
N   -0.89038588   1.19486973  -1.28890591
C   -1.47780964   0.36469997  -2.17119778
O   -1.80942753  -0.77161251  -1.93555014
H   -1.65876164   0.85102912  -3.14591233
H   -0.52564211   2.07979355  -1.60117102
H   -0.57719456   1.56359347   0.73809871
H   -1.25185777  -0.02858527   0.32293629
