18
Energy: 2.72
O   -1.36488272   0.47448863  -1.79289202
H   -0.97279297   1.27781349  -2.17016263
C   -1.00550430   0.43826449  -0.43849261
C    0.34985629   1.10001498  -0.21635545
C    1.45266486   0.84839672  -1.14331995
H    1.29106980   0.18633552  -1.98554977
O    0.72516796   2.04939401  -1.17156774
H    2.47137976   0.92038507  -0.78679799
H    0.58233032   1.35439170   0.81274851
H   -1.75970050   0.98047884   0.16218708
C   -0.97248669  -1.03516138   0.00892876
N   -0.85955416  -1.18083741   1.43983668
C    0.33001462  -1.35529921   2.04741881
O    1.39249656  -1.43588700   1.48592197
H    0.22377418  -1.43552912   3.14532844
H   -1.69202081  -1.05640370   1.99261637
H   -0.10557814  -1.52372841  -0.44128464
H   -1.88465618  -1.51948805  -0.34475916
