18
Energy: 3.747
O    0.98943648   0.02185324   2.26624600
H    1.88173716   0.36767537   2.38178505
C    0.44795429   0.52561969   1.06914845
C   -0.86530319  -0.19242962   0.82089994
C   -2.10510537   0.27198463   1.44345389
H   -2.08136509   1.14511580   2.08443631
O   -1.83001946   0.50417119   0.09116170
H   -2.89560273  -0.43908055   1.64819931
H   -0.76221255  -1.24694803   0.58218535
H    0.23799987   1.60568272   1.16512274
C    1.39965387   0.29723477  -0.12379937
N    0.76089927   0.57524359  -1.38636744
C    0.39347877  -0.42212346  -2.21881543
O    0.68841130  -1.58181158  -2.08403822
H   -0.18109000  -0.04477858  -3.08273059
H    0.34386200   1.48526560  -1.50170236
H    1.69706526  -0.75518087  -0.14696149
H    2.29224869   0.92419896  -0.01183559
