21
Energy: 0.0
O   -2.83073892   0.95540488  -1.38851038
H   -3.45376652   0.58151377  -0.75496763
C   -1.86615018   1.70176249  -0.68678027
C   -1.09569532   0.86530061   0.33932045
C   -0.31507997  -0.24676822  -0.34769158
H   -0.97140714  -0.72817637  -1.07622077
C    0.38334036  -1.31022615   0.52120220
H   -0.07382455  -2.29361316   0.58596653
C    1.10774519  -0.80363607   1.77190182
H    0.72053962   0.10788788   2.23255594
H    1.25847121  -1.56389864   2.54433724
O    2.31473743  -0.57571569   1.03750341
C    1.71441502  -1.01054071  -0.18229525
H    2.32622600  -1.73191846  -0.72183361
C    1.04563270   0.12383094  -0.97839433
H    1.09714252   0.01020479  -2.05782628
H    1.42156689   1.10511339  -0.69683445
H   -0.42395480   1.52685572   0.88730313
H   -1.80135607   0.42654281   1.05205837
H   -2.33669301   2.55976012  -0.18427225
H   -1.18143375   2.07930953  -1.44918611
