21
Energy: 4.469
O    1.55807893  -1.65496355  -0.57284631
H    1.41322795  -2.42130757  -0.00660400
C    0.52209271  -1.59340843  -1.52305339
C   -0.88335248  -1.51525226  -0.92404558
C   -1.21732379  -0.32833395  -0.01824503
H   -2.31045470  -0.29795167   0.05280950
C   -0.76220838   1.11750833  -0.27274865
H   -1.39600678   1.74788218  -0.89201703
C    0.74332297   1.43982072  -0.32037748
H    1.41639895   0.60842553  -0.52264581
H    1.00630282   2.29927834  -0.94166499
O    0.76452901   1.78563337   1.07346007
C   -0.56083411   1.30815264   1.23828524
H   -1.17175181   1.93027688   1.89001723
C   -0.65257659  -0.22533852   1.41444814
H   -1.30336155  -0.58318375   2.20873060
H    0.33918523  -0.65601464   1.52558470
H   -1.58017226  -1.51056487  -1.76571345
H   -1.07285289  -2.42628457  -0.34630394
H    0.56379683  -2.47524137  -2.18104573
H    0.72347061  -0.71045807  -2.13278033
