21
Energy: 0.676
O   -2.91942270   0.39455721   0.59807372
H   -2.54108095   0.91438490   1.31588686
C   -2.44025889  -0.92341375   0.69358240
C   -0.91136756  -1.01809489   0.69624293
C   -0.30296905  -0.37702084  -0.54494609
H   -0.89866570  -0.66156424  -1.41465236
C    1.19091503  -0.61429470  -0.83917326
H    1.44707542  -1.32925072  -1.61582140
C    2.14810285  -0.52190566   0.35285288
H    1.73959228  -0.76934941   1.33519560
H    3.09562309  -1.05055210   0.21210778
O    2.31732942   0.88734183   0.16838203
C    1.41370003   0.90155344  -0.93711859
H    1.80845340   1.43367937  -1.80104583
C   -0.04841164   1.14714577  -0.52655149
H   -0.63872399   1.71807269  -1.23734985
H   -0.12215860   1.60784019   0.45618852
H   -0.52665858  -0.53148283   1.59625036
H   -0.63284324  -2.07355205   0.73528236
H   -2.84775729  -1.44111849  -0.17811058
H   -2.83448109  -1.41050120   1.59880629
