21
Energy: 0.121
O   -2.02176732   0.42032254  -2.38881559
H   -2.80059195   0.89081363  -2.07028750
C   -1.76362601  -0.66117152  -1.52624588
C   -1.53109613  -0.22715847  -0.07663381
C   -0.32090887   0.68766555   0.04322206
H   -0.48340704   1.56419478  -0.58776819
C    1.08468124   0.11721068  -0.23388863
H    1.54911194   0.36616537  -1.18316590
C    1.40750727  -1.26181276   0.34905456
H    0.57264313  -1.95193920   0.49055348
H    2.22413939  -1.78371911  -0.15859384
O    1.85620515  -0.68803544   1.58165493
C    1.56054362   0.63305545   1.13168439
H    2.37858947   1.33193780   1.29960429
C    0.12913127   1.09111072   1.46412060
H    0.03130166   2.14828242   1.69744008
H   -0.31844748   0.49957710   2.25996254
H   -2.41199881   0.31029374   0.28817075
H   -1.40770666  -1.11556350   0.54328399
H   -0.86382911  -1.13838715  -1.92089979
H   -2.58938213  -1.38727564  -1.56546996
