21
Energy: 0.742
O   -1.35869882   0.03116097  -3.10156176
H   -1.44674121  -0.84507235  -2.71123532
C   -0.29323892   0.70437360  -2.47694622
C   -0.50164349   0.92004286  -0.97296674
C   -0.37872669  -0.37709283  -0.18512441
H   -1.05345316  -1.12747068  -0.60735989
C   -0.57445190  -0.33824903   1.34435094
H   -1.51423744  -0.71047592   1.74216410
C    0.07696733   0.82512013   2.09757089
H    0.20696200   1.76082550   1.55012245
H   -0.37326413   1.03550100   3.07208215
O    1.30363392   0.10212110   2.24736470
C    0.78754269  -1.02057428   1.53586612
H    0.96047234  -1.96532317   2.04918754
C    1.03960499  -0.95694824   0.01852650
H    1.21953725  -1.92072994  -0.45151966
H    1.84453627  -0.27114458  -0.23672991
H    0.24629102   1.63628085  -0.63198403
H   -1.49247367   1.35115320  -0.81269282
H   -0.23551664   1.67189333  -2.98089998
H    0.65231350   0.16854645  -2.64375917
