21
Energy: 0.512
O    3.04127598  -1.88484843  -0.59709967
H    3.40947092  -1.38153220  -1.33199894
C    1.63744219  -1.82554496  -0.66351112
C    1.10408163  -0.39089920  -0.61922312
C   -0.41616007  -0.37082447  -0.57864006
H   -0.79993122  -1.00876825  -1.37909614
C   -1.14093436   0.98967066  -0.61040395
H   -1.60667375   1.29288642  -1.54383550
C   -0.55235152   2.10542755   0.25831341
H    0.52140640   2.06716839   0.45285300
H   -0.82699284   3.11538352  -0.06025539
O   -1.32867784   1.69800197   1.38965228
C   -1.90587710   0.61301710   0.66628502
H   -2.98879157   0.56277972   0.76861999
C   -1.09991566  -0.69472498   0.76845950
H   -1.70137439  -1.59982248   0.77451755
H   -0.42691506  -0.69841631   1.62265254
H    1.51689725   0.09768579   0.26475373
H    1.45027594   0.15387040  -1.50360582
H    1.28124048  -2.38315132   0.20546216
H    1.27283540  -2.33011711  -1.57114526
