21
Energy: 4.299
O    1.29490521  -1.06015893   2.94005726
H    1.53032450  -1.99278503   2.88072785
C    1.01030380  -0.57868144   1.64555368
C   -0.12505993  -1.37392385   0.99344777
C   -0.88427892  -0.73574406  -0.16750834
H   -1.67591612  -1.44401392  -0.43468062
C   -0.22701923  -0.30056825  -1.49152287
H   -0.23561649  -1.01766491  -2.30859897
C    0.96705304   0.66317734  -1.46746922
H    1.59259648   0.66517929  -0.57592399
H    1.59970105   0.60698726  -2.35837424
O    0.11027215   1.80889570  -1.52328887
C   -1.05529323   0.99364398  -1.46469406
H   -1.81484929   1.27739475  -2.19108378
C   -1.51051601   0.66836492  -0.02806271
H   -2.58415146   0.68375354   0.14076021
H   -1.02239894   1.31111702   0.69945836
H    0.26705591  -2.33896053   0.65654826
H   -0.86001348  -1.57138369   1.78020420
H    1.91836517  -0.61993251   1.02865090
H    0.72512878   0.46445793   1.79095926
