21
Energy: 1.466
O    0.98234539  -0.55117450   2.91427850
H    1.72214091  -0.31194494   3.48085143
C    0.48643197   0.61036178   2.28262969
C   -0.67788225   0.21532873   1.37808218
C   -0.22149932  -0.69278432   0.24593107
H    0.20665413  -1.59461347   0.68599535
C    0.73306509  -0.13673782  -0.83056099
H    1.77739663  -0.43141419  -0.78140581
C    0.44098459   1.26969096  -1.36270854
H   -0.06449249   1.96270259  -0.68608051
H    1.30460845   1.76964661  -1.81222515
O   -0.43462916   0.75736340  -2.37223372
C   -0.24433208  -0.58495528  -1.92594122
H   -0.01804766  -1.27329633  -2.73895670
C   -1.25377204  -1.02806510  -0.85229983
H   -1.54720691  -2.07307170  -0.90663221
H   -2.14251969  -0.40095840  -0.83753485
H   -1.41483282  -0.32282481   1.97662982
H   -1.14825581   1.11875372   0.98860040
H    1.27436840   1.08717642   1.68157518
H    0.13851365   1.33387081   3.03464318
