21
Energy: 3.569
O   -2.92144795  -0.70012249   1.45735639
H   -2.75170285  -1.64808140   1.41732905
C   -1.79419965  -0.01155115   0.96695254
C   -1.47354484  -0.41448359  -0.47637093
C   -0.27471827   0.28924494  -1.12326170
H   -0.53371203   0.52367911  -2.15824022
C    1.09212198  -0.42594736  -1.12052115
H    1.39252921  -0.93932269  -2.02970940
C    1.54406812  -1.05132960   0.20106412
H    0.76154738  -1.38687975   0.88438435
H    2.29172243  -1.84300175   0.09163889
O    2.15426207   0.17212020   0.62436120
C    1.75804868   0.84258969  -0.57161713
H    2.57396628   1.38922391  -1.04169170
C    0.38363798   1.52468568  -0.46141099
H    0.28717720   2.44386968  -1.03351132
H    0.10369542   1.71117261   0.57032156
H   -1.29812209  -1.49515197  -0.50993545
H   -2.37079028  -0.21569630  -1.06662319
H   -0.93158554  -0.17865838   1.62620149
H   -2.06867090   1.04447402   1.01170446
