21
Energy: 0.236
O    2.59655246  -0.18300936   0.67954402
H    1.87101371  -0.61291169   1.14421887
C    2.24118487   1.15457486   0.42737475
C    0.97848872   1.30125545  -0.42746316
C   -0.29802245   0.94486878   0.32430299
H   -0.37339595   1.57878079   1.21240905
C   -0.58681561  -0.52174638   0.71403987
H   -0.46139420  -0.80475528   1.75714493
C   -0.28104486  -1.59610893  -0.33568131
H    0.51382886  -1.37924849  -1.05220658
H   -0.13047941  -2.59821490   0.07729978
O   -1.58687327  -1.47188587  -0.91076919
C   -1.94729844  -0.44258342   0.00709155
H   -2.91694599  -0.60941293   0.47386413
C   -1.61141960   0.97517702  -0.48991975
H   -2.32066924   1.74322284  -0.19297705
H   -1.46695932   1.01041383  -1.56730504
H    0.90057392   2.34106577  -0.75177845
H    1.08278356   0.68157643  -1.31902150
H    3.09605984   1.58173852  -0.10246155
H    2.11194457   1.70323562   1.37261160
