21
Energy: 1.404
O    2.62070271  -1.34581305  -1.38120965
H    3.11408200  -1.52674705  -2.18702109
C    1.25387174  -1.62432781  -1.60236142
C    0.47776676  -1.31985641  -0.32314590
C    0.51430612   0.16848718  -0.00790523
H    1.55130506   0.50143255  -0.07333700
C   -0.11887125   0.66451914   1.30617080
H    0.54881097   0.93715117   2.11818003
C   -1.46315159   0.04492504   1.69932050
H   -1.65868361  -0.97293362   1.35557429
H   -1.69801885   0.11852416   2.76546087
O   -2.18755772   1.02580976   0.94893034
C   -0.98290632   1.65637267   0.51500247
H   -0.99852645   2.73707053   0.64959766
C   -0.43369187   1.09132917  -0.80647455
H    0.06009921   1.82358810  -1.44015672
H   -1.19610032   0.56764505  -1.37973625
H   -0.54868184  -1.66435964  -0.45377570
H    0.93501322  -1.87282888   0.49928102
H    1.11961673  -2.68265964  -1.86980069
H    0.86487962  -1.00688306  -2.42464437
