21
Energy: 2.233
O   -1.06022567   0.29613759  -2.67585056
H   -1.52352691   0.65651675  -3.43807634
C    0.12579080   1.02909047  -2.46179495
C    0.82891421   0.48265147  -1.22093993
C    0.07603518   0.81891567   0.05844995
H   -0.13110416   1.89201962   0.07585432
C    0.68775606   0.39069797   1.40713620
H    1.16645739   1.15688093   2.01116712
C    1.29177212  -1.01496338   1.47953403
H    1.68249722  -1.43387687   0.54998265
H    2.03209826  -1.14586603   2.27490211
O    0.03507941  -1.58816655   1.85276926
C   -0.62080873  -0.32269304   1.77598127
H   -1.23573351  -0.11188740   2.65002704
C   -1.19124987  -0.00116404   0.38420450
H   -2.11628605   0.56838453   0.39096093
H   -1.31660702  -0.88279222  -0.23799876
H    0.90707802  -0.59811230  -1.33766341
H    1.83447750   0.90632792  -1.17222163
H   -0.09963705   2.09682280  -2.32353564
H    0.79456087   0.92977076  -3.33038637
