21
Energy: 1.775
O   -1.55902037   0.85425524  -3.10834661
H   -1.38820385   0.85285563  -4.05536571
C   -0.61833990   0.02277978  -2.46422804
C   -0.90322580   0.05284569  -0.96501308
C    0.10650959  -0.77859110  -0.19035581
H    0.17816903  -1.76871648  -0.64798747
C   -0.07295321  -0.92660302   1.33366313
H   -0.46547758  -1.86808987   1.70705014
C   -0.46224506   0.33620796   2.10796094
H   -1.03200046   1.09243603   1.56483566
H   -0.94191236   0.14224077   3.07183600
O    0.90996240   0.70526078   2.28674048
C    1.36302253  -0.42997310   1.55270087
H    2.15591627  -0.97634090   2.06162842
C    1.50789629  -0.16947835   0.04242605
H    2.32810050  -0.70090531  -0.43352318
H    1.57815355   0.89136779  -0.18662763
H   -0.87786416   1.09415134  -0.64330406
H   -1.91151714  -0.32869589  -0.79309309
H    0.40484836   0.37906169  -2.65238944
H   -0.69649623  -1.00874251  -2.83891169
