21
Energy: 3.229
O    0.48301398  -1.24379320  -2.42389591
H    0.94825832  -0.75577722  -3.11231437
C    1.21431757  -1.15064921  -1.22405007
C    1.50402797   0.29422860  -0.80020580
C    0.30494167   1.10017223  -0.28536696
H    0.42551594   2.13699673  -0.60886132
C    0.00496761   1.08612000   1.23002009
H    0.27080951   1.97490114   1.79591753
C    0.12904458  -0.25488374   1.95264370
H    0.87748953  -0.95917067   1.58489203
H    0.22694806  -0.16076489   3.03961917
O   -1.20711134  -0.62013575   1.59434459
C   -1.43137618   0.63094859   0.93923536
H   -2.33702043   1.12877156   1.28425564
C   -1.13481979   0.60692376  -0.56700703
H   -1.73434070   1.30745814  -1.14342183
H   -1.21516705  -0.37999116  -1.01031448
H    2.27337252   0.28112216  -0.02471272
H    1.92891561   0.80940369  -1.66751827
H    2.17350044  -1.68186326  -1.32734383
H    0.61194202  -1.67511053  -0.48160241
