21
Energy: 1.812
O   -1.88661086  -1.66020856   0.35441496
H   -2.76547632  -2.03675132   0.24673467
C   -1.88278744  -0.80804146   1.47989672
C   -0.50668731  -0.16030613   1.61326494
C   -0.24687884   0.88951080   0.54239576
H   -0.99609924   1.68031366   0.63499562
C   -0.13090608   0.46324612  -0.93439022
H   -0.97801565   0.66331203  -1.58306755
C    0.67255628  -0.80486574  -1.23015534
H    0.69924955  -1.56347129  -0.44812938
H    0.42176250  -1.27858542  -2.18281121
O    1.89535457  -0.06227884  -1.33185615
C    1.23167109   1.16241438  -1.03164912
H    1.48997151   1.96666664  -1.71971153
C    1.17861632   1.48097493   0.47389621
H    1.25194283   2.53715653   0.72100340
H    1.92132162   0.92261637   1.03924969
H   -0.43952788   0.31883175   2.59238501
H    0.24852244  -0.94464528   1.56655079
H   -2.10255584  -1.38543091   2.39067374
H   -2.65066304  -0.02762791   1.37484991
