21
Energy: 4.155
O    1.51569312  -1.48209778  -0.19557076
H    0.87320570  -1.11333568  -0.82431500
C    0.92264816  -1.58396268   1.06853351
C    0.60970434  -0.25129025   1.77962745
C   -0.02678520   0.90352478   1.00210533
H   -0.18086771   1.70281709   1.73330033
C   -1.31782939   0.77655819   0.14998437
H   -2.19368799   1.28804823   0.53932805
C   -1.56579428  -0.49185646  -0.65894188
H   -1.34622813  -1.46392086  -0.22291818
H   -2.57643350  -0.51448306  -1.08367517
O   -0.61973898  -0.07947208  -1.65544721
C   -0.51730527   1.23367277  -1.08005304
H   -0.82335693   2.01313216  -1.77754583
C    0.73806569   1.44308621  -0.23150770
H    1.01703981   2.49102693  -0.14358344
H    1.60471210   0.86768361  -0.54325880
H   -0.02301704  -0.48991371   2.63802073
H    1.55187712   0.14825584   2.16445084
H    1.64827641  -2.12184580   1.68795259
H    0.01743837  -2.20714699   1.02707908
