21
Energy: 0.467
O    3.30551694   0.05305869   1.21117963
H    3.02926189  -0.67219428   1.78270783
C    2.16671130   0.61224780   0.60258822
C    1.36588558  -0.41025466  -0.20736151
C    0.19399455   0.23660232  -0.92909875
H    0.57865886   0.97133081  -1.64014005
C   -0.94358583   0.87075602  -0.10199613
H   -0.97325317   1.95421428  -0.03204873
C   -1.43370637   0.09026149   1.12160229
H   -0.71388606  -0.56559624   1.61620447
H   -1.93779000   0.70428657   1.87387908
O   -2.38252504  -0.63848244   0.33617673
C   -1.97066810   0.01830904  -0.86109060
H   -2.80678492   0.39825236  -1.44591168
C   -0.83085015  -0.70554900  -1.60022965
H   -0.87624966  -0.63958999  -2.68395352
H   -0.74288509  -1.74830936  -1.30339943
H    2.02517009  -0.87235171  -0.94586033
H    1.01050581  -1.20237293   0.45719099
H    2.54696304   1.39757740  -0.05493347
H    1.51460439   1.07851963   1.35631493
