21
Energy: 4.544
O    2.26308161  -0.58406513  -0.21072367
H    2.98830901  -0.89417885  -0.76169706
C    2.24684749   0.82814937  -0.20431848
C    1.09763962   1.31385842   0.67703505
C   -0.29984200   1.18802610   0.05436303
H   -0.73194187   2.18563720  -0.05560904
C   -1.32902885   0.28272098   0.74973004
H   -2.01766503   0.72937514   1.46207980
C   -0.86249060  -1.14944293   1.04818156
H    0.22024605  -1.29286553   1.06475963
H   -1.32098036  -1.62318457   1.91928757
O   -1.43765493  -1.64100528  -0.17141419
C   -1.73342188  -0.31820395  -0.60140899
H   -2.70731442  -0.22622003  -1.07917878
C   -0.52857501   0.39236042  -1.25262998
H   -0.75106903   0.99264789  -2.13137939
H    0.25715621  -0.32296692  -1.47628360
H    1.13415540   0.74255565   1.60592464
H    1.28987353   2.35940439   0.92262063
H    2.13261974   1.22211480  -1.22381545
H    3.19310964   1.20979150   0.20707531
