21
Energy: 2.062
O    0.74872015  -2.02939517   0.20504458
H    1.09532642  -1.15949256   0.46110416
C   -0.63993036  -2.06312106   0.38744906
C   -1.44063994  -1.03326102  -0.42506002
C   -1.27833649   0.44333458  -0.03285402
H   -2.26172321   0.91533368  -0.08325590
C   -0.26075167   1.31112367  -0.81826274
H   -0.67174165   2.06908180  -1.47817742
C    1.03646699   0.63187511  -1.24504506
H    0.99926023  -0.41072777  -1.56243054
H    1.60666671   1.21619963  -1.97442555
O    1.58891965   0.79675677   0.07191501
C    0.47972497   1.60112671   0.49349942
H    0.78817876   2.58511930   0.84605741
C   -0.56617883   0.81897745   1.29208333
H   -1.17106344   1.45251822   1.93716121
H   -0.15468048   0.00840692   1.88611457
H   -1.18686118  -1.14631608  -1.48123682
H   -2.49103841  -1.30925776  -0.31196204
H   -0.90049375  -1.97059812   1.45280461
H   -0.94573140  -3.06185652   0.06112164
