21
Energy: 0.403
O    2.00226647  -0.96067834  -2.08693777
H    1.30544668  -0.35045716  -2.35193175
C    2.49828518  -0.55850061  -0.83503639
C    1.42154261  -0.49521030   0.25345023
C    0.42805200   0.63745424   0.02081483
H    0.97847079   1.54593769  -0.24117187
C   -0.58374428   0.95962456   1.13898191
H   -0.39450095   1.83360829   1.75558911
C   -1.25211615  -0.23547974   1.82546518
H   -0.68738470  -1.16940091   1.85243035
H   -1.64405918  -0.01918537   2.82352120
O   -2.30698014  -0.26032528   0.85736407
C   -1.73887033   0.83004245   0.13624831
H   -2.46461971   1.60543170  -0.10448266
C   -0.74636152   0.39330267  -0.95709561
H   -0.75222186   1.02357892  -1.84427331
H   -0.88727347  -0.64749964  -1.24236985
H    0.90247569  -1.45442605   0.27585099
H    1.91338953  -0.34488694   1.21687292
H    2.99916967   0.41863963  -0.91544428
H    3.24890546  -1.30662161  -0.56868368
