21
Energy: 0.455
O    0.72218853   0.64382938   2.45676025
H   -0.02919294   1.23431438   2.33493433
C    0.25811155  -0.68410341   2.47514025
C   -0.51705567  -1.08020027   1.21533699
C    0.32877097  -0.94167561  -0.04225253
H    1.25007492  -1.51267178   0.09420010
C    0.68218081   0.45872532  -0.57897047
H    1.67171377   0.84644069  -0.35989199
C   -0.44959319   1.48991653  -0.65106442
H   -1.28255459   1.36815903   0.04651247
H   -0.11432817   2.53074601  -0.63377216
O   -0.80234065   1.08407664  -1.97744060
C    0.18203195   0.05237199  -1.97251983
H    0.77720951   0.02665747  -2.88351845
C   -0.33053513  -1.28189604  -1.39691653
H    0.05094441  -2.17378373  -1.88700847
H   -1.41738375  -1.32170432  -1.36591593
H   -0.82879632  -2.12198431   1.31566265
H   -1.42109685  -0.47181105   1.13544943
H   -0.37419911  -0.85620373   3.35956007
H    1.15580409  -1.29978847   2.57093950
