21
Energy: 3.721
O   -0.00295867   0.83117977  -2.43716292
H   -0.76033206   1.35486920  -2.72091361
C   -0.44630219  -0.45744570  -2.07731092
C   -1.53620391  -0.46793534  -0.99897167
C   -1.11725099  -0.41927734   0.47120858
H   -2.04388808  -0.50269088   1.04954247
C   -0.30327884   0.72757456   1.10273795
H   -0.86608998   1.51220293   1.60246591
C    1.02006414   1.15730950   0.45787425
H    1.12429842   1.01561998  -0.61562574
H    1.32403591   2.17456457   0.72209600
O    1.76161479   0.19449170   1.22303925
C    0.57437345  -0.30539357   1.82513338
H    0.65673395  -0.42635857   2.90458830
C   -0.09567949  -1.43718830   1.02101168
H   -0.51991981  -2.24533134   1.61187384
H    0.57859057  -1.85201315   0.27629238
H   -2.21643184   0.36866684  -1.18952941
H   -2.11016537  -1.38991798  -1.12428610
H    0.44442283  -0.99226131  -1.74449272
H   -0.83514634  -0.97054575  -2.96941972
