21
Energy: 0.632
O    2.86883778   1.26861816   0.66379851
H    2.32885760   1.14571361   1.45180535
C    2.29050363   0.55070245  -0.39900236
C    0.88096344   1.02979582  -0.76415310
C   -0.14134259   0.72994157   0.32484559
H    0.09539300   1.31476326   1.21800434
C   -0.40902649  -0.73656425   0.72405705
H    0.01334306  -1.09639964   1.65872937
C   -0.51924000  -1.75569443  -0.41466504
H    0.03090591  -1.53548730  -1.33222548
H   -0.32281194  -2.78908948  -0.11385783
O   -1.92474764  -1.52134836  -0.55158124
C   -1.90976024  -0.53098262   0.47407352
H   -2.70205798  -0.66767324   1.20847400
C   -1.63299450   0.89153626  -0.04571929
H   -2.15754526   1.68165831   0.48511033
H   -1.82047398   0.98432526  -1.11300092
H    0.90692295   2.10859688  -0.93194800
H    0.58491750   0.55354163  -1.69934792
H    2.26487298  -0.52437993  -0.16812919
H    2.96215340   0.70631225  -1.24654819
