21
Energy: 4.636
O   -0.94064159   2.50388879  -0.68147260
H   -0.84772837   3.28222952  -0.12322607
C   -1.37587467   1.41473770   0.11140547
C   -1.49467955   0.18172052  -0.78764512
C   -0.19717944  -0.58772778  -1.04883198
H   -0.27835332  -1.06298386  -2.02858118
C    0.26590337  -1.63657352  -0.00779014
H    0.20513261  -2.68043017  -0.30235991
C    0.02285997  -1.31117641   1.46292058
H   -0.89154350  -0.77664313   1.72549140
H    0.13360913  -2.18007313   2.12165377
O    1.19515491  -0.49055260   1.51220175
C    1.57373028  -0.85585873   0.17878683
H    2.57698390  -1.27979372   0.13428098
C    1.15095077   0.15349643  -0.89451186
H    1.77233274   0.11190485  -1.78581848
H    1.09012654   1.18124042  -0.55389973
H   -2.22803281  -0.50599575  -0.36121677
H   -1.88569266   0.54160080  -1.74101802
H   -2.36548011   1.63968754   0.53779936
H   -0.67454185   1.24653622   0.93594563
