21
Energy: 1.657
O   -2.54781842  -2.29133984   0.41842302
H   -3.46375545  -2.20514558   0.70057333
C   -1.81208485  -1.17723987   0.87518649
C   -0.36731790  -1.33574103   0.41021125
C    0.49871540  -0.16258210   0.83904068
H    0.53092681  -0.12277550   1.93075665
C    0.18941692   1.24307849   0.28331971
H   -0.30309617   1.95170522   0.94348189
C   -0.15350598   1.33819050  -1.20678982
H   -0.60817111   0.45872007  -1.66708893
H   -0.72637071   2.22904394  -1.48136945
O    1.22538855   1.48816845  -1.56240522
C    1.63970354   1.37117871  -0.20331525
H    2.34549307   2.14566209   0.09344143
C    1.91872080  -0.07780118   0.23585087
H    2.73057103  -0.18922060   0.94971269
H    2.08414824  -0.74097550  -0.60989784
H    0.03685228  -2.25720370   0.83300231
H   -0.36348234  -1.44759172  -0.67422098
H   -1.84494629  -1.11719901   1.97332775
H   -2.23059112  -0.24478625   0.46835947
