21
Energy: 3.338
O    0.34957727   3.23413477  -0.34395515
H    0.42144685   3.54674562  -1.25277418
C    0.70336198   1.87101513  -0.30088286
C   -0.18630111   1.02967152  -1.22308443
C   -0.02549789  -0.49064186  -1.11181234
H   -0.09470392  -0.91639444  -2.11566870
C   -0.98764003  -1.26684473  -0.18849713
H   -1.81648567  -1.79057136  -0.65658236
C   -1.24254232  -0.67457959   1.19896951
H   -1.17638025   0.40992352   1.29773419
H   -2.16551771  -1.02570310   1.67076561
O   -0.10394584  -1.35191861   1.74469023
C    0.20835450  -1.94961346   0.48748061
H    0.37382014  -3.02384038   0.55769008
C    1.17876246  -1.11216886  -0.36232197
H    1.84383863  -1.69665906  -0.99337041
H    1.76422237  -0.42653442   0.24156079
H   -1.22882864   1.28619970  -1.01653473
H    0.02447115   1.33551870  -2.25260168
H    0.58494998   1.58068896   0.74398419
H    1.75881993   1.74467404  -0.58240891
