21
Energy: 4.531
O    1.21195597  -1.53341103   2.58878465
H    1.22120795  -1.15007005   3.47150275
C    0.26235828  -0.84873564   1.79557233
C    0.25362247  -1.52375618   0.42434199
C   -0.59003501  -0.84480136  -0.65827705
H   -1.06204711  -1.62428032  -1.26030335
C    0.09839532   0.15813857  -1.61016158
H    0.33968174  -0.18930652  -2.61065941
C    1.06246455   1.16110130  -0.97627514
H    1.60403523   0.83943639  -0.08567628
H    1.76611330   1.60943485  -1.68503908
O   -0.00743817   2.06775141  -0.68213124
C   -0.97415313   1.20502358  -1.28288836
H   -1.60642841   1.71843169  -2.00634703
C   -1.63308650   0.23834692  -0.28655362
H   -2.65747421  -0.02821707  -0.53548281
H   -1.59530498   0.60530583   0.73411433
H    1.28830735  -1.59091472   0.08113718
H   -0.09778579  -2.54558525   0.57683638
H    0.53227469   0.21234175   1.71462779
H   -0.73429418  -0.92030395   2.25428810
