21
Energy: 0.342
O   -1.59647942  -2.43592483  -1.89901309
H   -2.34534191  -2.03072220  -2.35089729
C   -0.59637400  -1.46336695  -1.71553351
C   -1.08763095  -0.25387874  -0.91665525
C    0.03288947   0.74070302  -0.65603481
H    0.39941825   1.12174968  -1.61266075
C    1.22911463   0.31272584   0.21875337
H    2.16474298   0.08464252  -0.28355835
C    0.91212617  -0.49231210   1.48275533
H    0.01195200  -1.10964567   1.46735914
H    1.75108250  -1.08552158   1.85821918
O    0.74434941   0.70124159   2.25667052
C    1.00165203   1.53031429   1.12601019
H    1.72650077   2.31662999   1.33148665
C   -0.26343522   1.89462873   0.32817329
H   -0.25479325   2.88878700  -0.11098757
H   -1.17157111   1.76257446   0.91196175
H   -1.88221589   0.25259882  -1.47362537
H   -1.51729845  -0.60260860   0.02380885
H   -0.19930008  -1.13025099  -2.68639167
H    0.20555520  -1.96901199  -1.17280852
