21
Energy: 3.555
O    2.65176779  -1.07529909   0.76371494
H    2.67552816  -0.22756179   0.30564821
C    1.30981172  -1.47891560   0.89658241
C    0.44422871  -0.42948012   1.60217117
C    0.02785640   0.78551143   0.75828627
H    0.16962095   1.68897517   1.35631546
C   -1.40125009   0.81267346   0.18037451
H   -2.15432274   1.37961589   0.72003555
C   -1.87536246  -0.45850257  -0.53005753
H   -1.42119869  -1.39828372  -0.20774401
H   -2.96197335  -0.57567327  -0.57302444
O   -1.35994020  -0.00331970  -1.78648047
C   -0.84378120   1.18860753  -1.19826260
H   -1.08814840   2.08561403  -1.76469521
C    0.59191953   1.02481294  -0.66630246
H    1.21718127   1.91003514  -0.76176563
H    1.08479359   0.17865476  -1.13738678
H   -0.45894800  -0.91663025   1.97491047
H    1.01195559  -0.08732161   2.47023830
H    1.34568107  -2.38467580   1.50741491
H    0.88707807  -1.74712636  -0.08137138
