21
Energy: 4.912
O    1.42744030   1.54526300   1.61263119
H    2.03143331   1.23165640   2.29344767
C    1.73075709   0.89651022   0.38838532
C    0.77797294   1.42603570  -0.69238744
C   -0.28163676   0.46672237  -1.23617892
H   -0.70293462   0.93728278  -2.12848361
C   -1.44032524  -0.02630152  -0.33782360
H   -2.42554172   0.38088564  -0.54604730
C   -1.11320653  -0.35192626   1.11666614
H   -0.37621613   0.26896334   1.62181614
H   -2.00496448  -0.44148059   1.74657623
O   -0.62796962  -1.65418104   0.75145753
C   -1.01969074  -1.47658687  -0.61134778
H   -1.67483931  -2.27239804  -0.96677874
C    0.11466864  -0.99954268  -1.52905908
H   -0.01943055  -1.29008934  -2.56863419
H    1.10451143  -1.30438726  -1.20088667
H    0.27445135   2.29813507  -0.26987151
H    1.37146701   1.76569913  -1.54320228
H    1.63701557  -0.18863065   0.50774722
H    2.76939301   1.11898330   0.10646716
