23
Energy: 0.575
O   -1.80209917  -0.21383340   2.67277154
C   -0.82449173  -0.98179427   2.05141239
C    0.17255183  -0.40577180   1.08403963
C   -0.90110583  -1.34899594   0.59931319
H   -0.62746368  -2.34686238   0.29567814
H   -1.70584730  -0.92473443   0.01714804
C    0.14097852   1.05744592   0.70393482
H   -0.88696496   1.37989852   0.51739319
C    0.97735393   1.35112036  -0.54586439
C    0.41705497   0.69398304  -1.78531086
C    1.28954334   0.51153594  -2.99079373
C    0.86015675  -0.67887690  -2.18878554
H    0.13345942  -1.35294949  -2.61559325
H    1.60207631  -1.17252229  -1.58068652
H    0.85902592   0.65783634  -3.96972140
H    2.32033965   0.82468925  -2.92126113
H   -0.62015019   0.94611538  -1.97541315
H    1.00855995   2.43417776  -0.69862459
H    2.00133946   1.00875674  -0.38422934
H    0.52978091   1.65053104   1.53737531
H    1.17711924  -0.80621119   1.14910099
H   -0.48267666  -1.73023819   2.75504768
H   -2.10932068   0.45866285   2.05545612
