23
Energy: 0.546
O   -1.87415349  -1.77669250   2.04245185
C   -2.38417823  -0.76419899   1.24069445
C   -1.56097026  -0.03863712   0.21310901
C   -2.03273411   0.67910114   1.45512685
H   -2.80756813   1.42484367   1.37312648
H   -1.28966950   0.90642362   2.20612554
C   -0.08925491  -0.32550435   0.02344773
H    0.38696477  -0.53460548   0.98518547
C    0.62919579   0.86028491  -0.62758767
C    2.10266189   0.58396776  -0.80830426
C    2.57313765  -0.19577792  -1.99861885
C    2.87012841   1.26982368  -1.89720212
H    3.88577486   1.57740914  -1.70008478
H    2.33360678   1.94231297  -2.54923073
H    3.38516150  -0.89589527  -1.87422229
H    1.83536536  -0.51249684  -2.72031638
H    2.62939377   0.41319059   0.12386056
H    0.17544423   1.06594184  -1.59900584
H    0.49422580   1.74738902  -0.00259597
H    0.03384559  -1.21092636  -0.60618972
H   -2.06860363   0.21045546  -0.71134532
H   -3.40843438  -1.01137871   0.99180974
H   -0.95576958  -1.57613510   2.25353970
