23
Energy: 1.256
O    1.95900955  -2.25870905   0.88312006
C    0.57498035  -2.13244987   0.97840254
C   -0.16933215  -1.21352879   0.04322582
C    0.03125908  -0.83264678   1.48296262
H   -0.81017062  -0.84970822   2.15702135
H    0.75465029  -0.06196107   1.69329353
C    0.58517142  -0.48933002  -1.04684339
H    1.56198757  -0.18710704  -0.66407573
C   -0.16324721   0.74182091  -1.56660311
C   -0.31245783   1.82024310  -0.51995958
C   -1.33566658   2.90006897  -0.70706517
C   -1.52357517   1.86529038   0.36015233
H   -1.40438607   2.16056314   1.39119187
H   -2.28745574   1.11808171   0.21061785
H   -1.08650375   3.90776455  -0.41120341
H   -1.97050362   2.85091420  -1.57904014
H    0.62826212   2.11810699  -0.07190710
H    0.38707837   1.14756228  -2.42103069
H   -1.15167891   0.44109711  -1.92095741
H    0.74927026  -1.17523732  -1.88504013
H   -1.16441786  -1.53139997  -0.24611185
H    0.07739064  -3.05117181   1.28692329
H    2.18128730  -2.72526635   0.06928489
