23
Energy: 0.398
O   -0.92012307  -1.33380037   2.73374522
C   -0.16723771  -0.18677798   2.51499917
C   -0.23632304   0.59999483   1.23534295
C    1.01248006  -0.17141416   1.58861721
H    1.89985956   0.36715461   1.88257790
H    1.21602069  -1.06816469   1.02135616
C   -1.11521548   0.15084430   0.08933522
H   -1.00169464  -0.92365127  -0.07595456
C   -0.77957641   0.87802871  -1.21732942
C    0.61208003   0.55252911  -1.70609395
C    0.85896580  -0.73517424  -2.43239313
C    0.91591501   0.56692431  -3.17296321
H    1.87752208   0.93253007  -3.49930409
H    0.11211279   0.79575587  -3.85640254
H    1.78161713  -1.26597599  -2.25248112
H    0.01586778  -1.38364478  -2.61964404
H    1.39634439   0.89563049  -1.04331757
H   -1.50650933   0.58817192  -1.97928150
H   -0.86932391   1.95650656  -1.06296867
H   -2.16150358   0.34351506   0.34537436
H   -0.18754951   1.67780739   1.33783455
H   -0.09587108   0.35678972   3.44854798
H   -0.99237405  -1.82154465   1.90624356
