23
Energy: 1.459
O    1.09619286  -0.59942841   2.43610392
C    0.40838980  -1.41481555   1.54068785
C   -0.64167724  -0.83254861   0.63059796
C   -1.04224816  -1.66747452   1.81490900
H   -1.43501305  -2.65913132   1.65521149
H   -1.46535800  -1.15227392   2.66279400
C   -0.90380182   0.65514984   0.64666185
H   -1.95466669   0.83964909   0.40773903
C   -0.02360280   1.41926250  -0.34950763
C   -0.31460852   1.05032863  -1.78579117
C    0.65457664   1.43429624  -2.86327475
C    0.49061081  -0.00547613  -2.48107905
H   -0.00788361  -0.66738501  -3.17318953
H    1.29355940  -0.47725390  -1.93460370
H    0.26831269   1.76240808  -3.81610216
H    1.56461808   1.93606755  -2.57042334
H   -1.36738358   1.10555298  -2.03809815
H   -0.19766096   2.49123808  -0.21550146
H    1.03073243   1.22696966  -0.13710748
H   -0.71856082   1.03423697   1.65409548
H   -0.74165197  -1.28995040  -0.34525388
H    1.00794661  -2.24046687   1.15900619
H    1.67628271  -0.00590241   1.94559680
