23
Energy: 1.392
O    0.79004947  -1.55771257  -1.22566131
C    0.78090375  -0.22804599  -1.64116670
C   -0.36983616   0.64612952  -1.23735861
C   -0.21922883   0.21857845  -2.67152210
H    0.08059287   0.94475450  -3.41134960
H   -0.91121870  -0.52625207  -3.03578559
C   -1.49627052   0.08768444  -0.40126993
H   -2.44461724   0.51518939  -0.73987888
C   -1.30983433   0.39170428   1.08733106
C   -0.01431951  -0.17469586   1.61935920
C    1.20016115   0.69348752   1.74034877
C    0.47970955   0.23690968   2.97283333
H    0.95027219  -0.50308183   3.60219478
H   -0.09639675   0.96732675   3.52159145
H    2.16490051   0.26405188   1.51876677
H    1.11583422   1.73370689   1.46345818
H    0.15556651  -1.20219843   1.32460981
H   -1.32950859   1.47273449   1.24610557
H   -2.14979403  -0.04068469   1.63946456
H   -1.53702983  -0.99298556  -0.54372999
H   -0.12640193   1.67770354  -1.01347541
H    1.77234154   0.22146983  -1.67290378
H    1.11991694  -2.11001426  -1.94348639
