23
Energy: 1.229
O   -2.31918861   0.06317321   0.07186240
C   -2.02919652  -1.16120638  -0.52532894
C   -0.63399640  -1.40296746  -1.02400778
C   -1.76173440  -1.23151009  -2.00360369
H   -2.11729804  -2.08750242  -2.55623757
H   -1.79625329  -0.30281997  -2.55348397
C    0.41053087  -0.32375311  -0.87547347
H    1.19293992  -0.46711183  -1.62567954
C    1.02477749  -0.33879779   0.52645799
C    2.01869950   0.78304000   0.70511166
C    1.52199247   2.15787398   1.03483241
C    2.26243063   1.36088931   2.06593211
H    3.26505704   1.66302907   2.32901747
H    1.70004778   0.95855937   2.89475795
H    2.01412255   3.01056034   0.59178885
H    0.45865001   2.28790441   1.16651654
H    2.87379191   0.71821912   0.04150566
H    0.22031336  -0.23271855   1.25556397
H    1.51675704  -1.30021374   0.69995127
H   -0.05097927   0.64976454  -1.04370684
H   -0.24987413  -2.40774786  -0.89144280
H   -2.55962962  -1.99818255  -0.07229367
H   -3.18097588   0.36962122  -0.23203226
