23
Energy: 1.194
O   -2.75326043   0.84935343  -0.97485107
C   -1.69571453   1.71275696  -0.70050168
C   -0.27547555   1.20907082  -0.73617000
C   -0.94401521   1.50514937   0.57735732
H   -0.64021650   2.37137066   1.14410518
H   -1.24630961   0.66137756   1.17680548
C   -0.00285803  -0.22103204  -1.14006564
H   -0.77430235  -0.86409973  -0.71255250
C    1.37587826  -0.70951681  -0.68373199
C    1.50417406  -0.74771040   0.82048654
C    0.89780713  -1.88454947   1.58571738
C    2.38785333  -1.76712896   1.47262314
H    2.95002699  -1.48052507   2.34838903
H    2.90528275  -2.47233488   0.83952678
H    0.43605796  -1.68172678   2.54002566
H    0.41018871  -2.66957384   1.02740580
H    1.46403406   0.22924491   1.28490504
H    1.54213956  -1.71189590  -1.08457964
H    2.14590059  -0.05244601  -1.09782605
H   -0.05796678  -0.30274228  -2.23107921
H    0.47475876   1.91414048  -1.07620502
H   -1.87713916   2.73605315  -1.02726691
H   -2.72898609   0.60097778  -1.90603812
