23
Energy: 1.42
O    1.22364013  -0.89780560   2.23131767
C   -0.06722119  -1.40998606   2.12858464
C   -1.00883072  -0.78612376   1.14000405
C   -1.23676702  -0.59867262   2.61448221
H   -2.06074031  -1.10710326   3.09105638
H   -1.02090479   0.37697012   3.02369993
C   -0.54773982   0.37342461   0.29098603
H   -1.41124345   0.97352991  -0.00817141
C    0.19554753  -0.11382233  -0.95520337
C    0.65302630   1.04105027  -1.81272181
C    0.84938378   0.85505531  -3.28641049
C   -0.29985719   1.67440599  -2.78098529
H   -0.26898607   2.74468131  -2.91840612
H   -1.29203195   1.25655573  -2.86294438
H    1.67115122   1.36235644  -3.76863699
H    0.63331520  -0.11483739  -3.70842505
H    1.34683331   1.70372956  -1.30883179
H    1.05927549  -0.70153328  -0.63640676
H   -0.46049056  -0.76409735  -1.53842927
H    0.12091575   1.00400643   0.87792948
H   -1.67710661  -1.46766611   0.62644730
H   -0.11545306  -2.48987076   2.26511901
H    1.47931582  -0.86285507   3.15997435
