23
Energy: 0.476
O   -0.71780523  -0.49672542  -3.09338409
C    0.58429661  -0.62604213  -2.62861691
C    0.92762056  -0.71887051  -1.16809382
C    1.31204147   0.50573623  -1.96349034
H    2.34931049   0.67549496  -2.20543061
H    0.75673441   1.41292867  -1.77258274
C   -0.13043410  -0.61507569  -0.09390588
H   -0.89014837   0.11984824  -0.37267879
C    0.47828014  -0.19378861   1.24699007
C   -0.58405379  -0.02735444   2.30707761
C   -0.35119388   0.88814277   3.46998167
C   -1.33880342   1.26380478   2.40673704
H   -2.39074470   1.23546570   2.64691972
H   -1.07093606   2.06197028   1.73054711
H   -0.72410013   0.59836256   4.44041309
H    0.58145812   1.43027817   3.50935047
H   -1.14333147  -0.93472238   2.50452480
H    1.20239458  -0.94773791   1.56705780
H    1.01480551   0.74824625   1.11554445
H   -0.63017373  -1.58104484   0.02155109
H    1.72968294  -1.40071256  -0.91093119
H    1.13244888  -1.25090499  -3.32230746
H   -1.22136376   0.03853725  -2.47039284
