23
Energy: 1.04
O    2.45404891  -0.50420863   2.10751832
C    1.37062767   0.36578985   2.00986025
C    0.30427734   0.13962677   0.96908249
C    1.30243004   1.25236924   0.80566637
H    0.98480085   2.27519106   0.93388968
H    2.07825245   1.11492466   0.06901682
C    0.38837417  -1.06175320   0.05732038
H    1.43548085  -1.35725050  -0.03944435
C   -0.17963388  -0.77528164  -1.33619149
C   -1.65747044  -0.46384360  -1.30601617
C   -2.13086298   0.95226836  -1.17939775
C   -2.29724865   0.22038949  -2.47634189
H   -3.28964442  -0.08121673  -2.77515890
H   -1.66460728   0.50516064  -3.30333776
H   -3.01085681   1.15533424  -0.58759125
H   -1.38644458   1.73222098  -1.13175775
H   -2.24861066  -1.22274707  -0.80554967
H    0.35755498   0.06629841  -1.77715367
H   -0.01115613  -1.65106881  -1.97000895
H   -0.16056682  -1.89682293   0.50341274
H   -0.70390548   0.42160034   1.24449889
H    1.05994081   0.78020207   2.96813965
H    2.15720765  -1.34046110   2.48432159
