23
Energy: 1.1
O    0.26151775  -1.04893010  -3.00375545
C    1.33079505  -0.36889739  -2.42709916
C    1.28520458   0.02465584  -0.97301560
C    1.11700642   1.06347021  -2.04719505
H    1.90908044   1.77195156  -2.23105352
H    0.12391019   1.45456788  -2.20214637
C    0.09593744  -0.35846451  -0.12487366
H   -0.79169810  -0.41156540  -0.75874540
C   -0.14374954   0.65231354   0.99971632
C   -1.34147437   0.27345598   1.83735213
C   -1.18911889  -0.71904942   2.95003326
C   -1.43803015   0.72576038   3.26254899
H   -2.40370604   1.00979388   3.65214962
H   -0.62153142   1.30475634   3.66683344
H   -1.98310802  -1.42846679   3.12721187
H   -0.20374720  -1.11492588   3.14520896
H   -2.26713385   0.23478879   1.27474353
H    0.74371161   0.70294502   1.63433152
H   -0.29810344   1.64259753   0.56353830
H    0.25784440  -1.34765328   0.31398472
H    2.23055289   0.01756080  -0.44280676
H    2.29769253  -0.64847183  -2.84384421
H    0.23249184  -1.94857850  -2.65828288
