23
Energy: 0.211
O   -0.45428372   1.70577160  -1.10873330
C    0.24897817   0.73768038  -1.81529257
C    1.21046068  -0.18100686  -1.10883200
C    1.72724291   0.92409002  -1.98735130
H    2.17578317   0.67938650  -2.93708530
H    2.16262000   1.78046096  -1.49690217
C    1.38692506  -0.08631311   0.38917691
H    2.44121297  -0.23910389   0.63618482
C    0.54987876  -1.12521963   1.14430638
C   -0.93537707  -0.96680246   0.91084491
C   -1.90341744  -1.38520350   1.97543131
C   -1.70468645   0.07059117   1.67625341
H   -2.50741975   0.60305551   1.18657846
H   -1.17057327   0.66606795   2.40176190
H   -2.83203347  -1.84815134   1.67841007
H   -1.50455269  -1.77185567   2.90089179
H   -1.23702768  -1.14878758  -0.11434931
H    0.85566710  -2.12737710   0.83073456
H    0.75677439  -1.03394561   2.21270250
H    1.11172004   0.91802975   0.71929455
H    1.28802826  -1.18968700  -1.49832580
H   -0.31222247   0.32929069  -2.65513405
H   -0.92851057   1.28411576  -0.38069481
