23
Energy: 1.444
O   -1.07152668   2.62775109   1.11353927
C   -1.28833468   1.50087029   1.90223802
C   -0.50606455   0.25710914   1.59899106
C   -1.98331741   0.30160182   1.31858132
H   -2.65905952  -0.26344825   1.94192785
H   -2.28370566   0.36830431   0.28354232
C    0.46961824   0.23606123   0.44791381
H    0.12315484   0.91817387  -0.32907097
C    0.62395029  -1.17167842  -0.13269449
C    1.56041587  -1.17917726  -1.31695241
C    1.43498175  -2.23714427  -2.37074391
C    1.04141783  -0.82341922  -2.67697799
H    1.66870313  -0.24589954  -3.33869146
H   -0.01058981  -0.60226859  -2.77622499
H    2.33381584  -2.63084493  -2.82054412
H    0.64970689  -2.97008882  -2.26217213
H    2.56340554  -0.84595930  -1.07673523
H    1.00628442  -1.84281651   0.64182388
H   -0.35559730  -1.54381739  -0.44005469
H    1.44079877   0.59740206   0.79388135
H   -0.19104242  -0.32934204   2.45435888
H   -1.48355801   1.73566610   2.94806358
H   -1.91245105   3.07229666   0.95707810
