23
Energy: 1.291
O    0.53014375  -1.08386449  -2.55572500
C   -0.39445550  -0.04324618  -2.56586112
C   -1.03436747   0.41791614  -1.28155649
C   -1.82272269  -0.38796539  -2.27617341
H   -2.59873835   0.09203318  -2.85107312
H   -2.02536089  -1.41722065  -2.02587346
C   -0.62065025  -0.20922952   0.02877701
H   -1.47733429  -0.24309208   0.70675235
C    0.51456887   0.57089542   0.69923122
C    0.93261410  -0.07212134   2.00008701
C    1.56641111   0.75273381   3.07873356
C    0.17323265   0.22895048   3.25636892
H    0.00860327  -0.56598827   3.96754819
H   -0.64247450   0.93373955   3.19879857
H    2.35989968   0.31644873   3.66608896
H    1.69187650   1.81021518   2.90104551
H    1.29743965  -1.08611705   1.88319121
H    1.37508235   0.62187984   0.02501381
H    0.18509513   1.59485010   0.88956889
H   -0.30006031  -1.23701966  -0.15458636
H   -1.26759398   1.47427144  -1.21336290
H   -0.19434465   0.70733677  -3.32952930
H    1.33985928  -0.78668948  -2.12488475
