23
Energy: 0.625
O   -1.59244961   2.86219473  -0.71353978
C   -0.38960180   2.21876726  -0.97580529
C   -0.11805960   0.78950866  -0.59605765
C    0.60409778   1.91444965   0.10639499
H    1.65387620   2.07085071  -0.08605622
H    0.31281927   2.12988492   1.12480892
C   -1.12696175  -0.04305948   0.16096847
H   -1.73293127   0.59282812   0.81213695
C   -0.45392751  -1.11432215   1.02679575
C    0.29697927  -2.13695125   0.20699446
C    1.75672181  -1.95668864  -0.08011816
C    1.30716323  -3.02314106   0.87156292
H    1.37635221  -4.05453301   0.56121562
H    1.49550182  -2.87499148   1.92417873
H    2.13710136  -2.25614338  -1.04513084
H    2.25105651  -1.08952560   0.33065654
H   -0.30339443  -2.58663294  -0.57568795
H    0.23594676  -0.63290834   1.72304815
H   -1.22379130  -1.62348098   1.61463406
H   -1.80263488  -0.52480208  -0.55101881
H    0.46092256   0.21412333  -1.30668902
H   -0.01888692   2.56980887  -1.93051661
H   -1.92432609   2.56964826   0.14224638
