23
Energy: 1.063
O    0.99421787  -2.68011822  -1.79592709
C   -0.13460198  -1.87139307  -1.80858812
C   -0.30166065  -0.67077927  -0.91769201
C   -1.14926223  -1.90245525  -0.70410865
H   -2.19849891  -1.87256590  -0.95218157
H   -0.92549084  -2.51170193   0.16019551
C    0.73762222  -0.28565540   0.10990623
H    1.28225406  -1.17293008   0.44424092
C    0.12023610   0.39024060   1.34128711
C   -0.47062874   1.74425597   1.02718036
C   -0.46812155   2.82205694   2.06855383
C    0.43411479   2.92955386   0.87659425
H    0.20603610   3.66616410   0.12144379
H    1.49247045   2.78183449   1.03061507
H   -1.31955325   3.48242406   2.13160509
H   -0.01947847   2.60390323   3.02603458
H   -1.33600598   1.70561431   0.37757081
H   -0.65731972  -0.25837797   1.75350335
H    0.89628624   0.50956608   2.10079958
H    1.46037279   0.39406316  -0.34836804
H   -0.79438269   0.17981499  -1.37099187
H   -0.48701838  -1.79791234  -2.82964988
H    1.30328626  -2.77322047  -0.88816089
