23
Energy: 0.357
O   -1.11032043   0.04490463  -1.80227133
C    0.10195283  -0.63131242  -1.73560056
C    1.22263788  -0.10240613  -0.87908551
C    1.29327575   0.00917243  -2.37758145
H    1.98576414  -0.61175604  -2.92369423
H    1.13952520   0.98708638  -2.80577235
C    1.03349611   1.14953732  -0.05386778
H    1.96991035   1.71456821  -0.05284339
C    0.63920608   0.85338001   1.39774826
C   -0.76631541   0.31472657   1.53480576
C   -1.03807642  -1.15527183   1.40816284
C   -1.14033296  -0.48677474   2.74558404
H   -2.11943236  -0.34678647   3.17771761
H   -0.37162646  -0.69152631   3.47506699
H   -1.95002919  -1.48453025   0.93125311
H   -0.20025970  -1.81318456   1.23576399
H   -1.52389412   0.99305170   1.15579887
H    1.34558988   0.13743838   1.82378288
H    0.71568483   1.77876343   1.97590378
H    0.26905280   1.77339480  -0.52201879
H    1.86632066  -0.84210904  -0.41710865
H   -0.00032585  -1.71299144  -1.81716282
H   -1.53928626  -0.01091828  -0.93980263
