23
Energy: 1.449
O   -1.97182203  -1.47348205  -1.98533925
C   -0.96861018  -0.67300057  -2.52557571
C    0.06257078  -0.09861219  -1.59933981
C   -0.95550533   0.80375222  -2.24150628
H   -0.64655533   1.48196025  -3.02192080
H   -1.74123174   1.18522376  -1.60664572
C   -0.01207076  -0.37040919  -0.11674094
H   -1.05512829  -0.51161356   0.16857474
C    0.59970966   0.77297123   0.69638728
C    0.53116932   0.49419256   2.17867394
C    1.59010707  -0.34383795   2.82825385
C    1.51903972   1.12652756   3.11137532
H    1.18140134   1.44842060   4.08485422
H    2.28182407   1.76202367   2.68721685
H    1.30332332  -1.03314669   3.60769609
H    2.40177808  -0.70094862   2.21255548
H   -0.48022303   0.37244980   2.54884743
H    1.64200788   0.90965386   0.39976622
H    0.06625159   1.70080915   0.47197611
H    0.51875694  -1.29844084   0.10680721
H    1.07333338  -0.04360572  -1.98679168
H   -0.63986943  -0.99829807  -3.51203620
H   -2.80514602  -1.28113735  -2.43011146
