23
Energy: 0.352
O   -1.14581580  -0.09190348  -2.51000135
C    0.23781123   0.02955870  -2.53345476
C    1.04592110   0.38712964  -1.31713092
C    0.92061581   1.36421663  -2.46130690
H    1.77618003   1.54967995  -3.09123756
H    0.30251296   2.23603296  -2.30193657
C    0.37781798   0.67418282   0.00855352
H    1.06750362   1.23292596   0.64678298
C   -0.03366419  -0.61948817   0.71973802
C   -0.69167437  -0.33559536   2.04872496
C   -0.63413043  -1.35020265   3.14966444
C    0.15537780  -0.08084500   3.25883352
H   -0.16426117   0.66510369   3.97051583
H    1.22757979  -0.14208582   3.14858126
H   -1.49825585  -1.47575553   3.78404272
H   -0.09628756  -2.26767237   2.96522543
H   -1.60659585   0.24045116   1.96657440
H   -0.72009013  -1.17966997   0.07945849
H    0.85251541  -1.23760836   0.87681063
H   -0.50498376   1.30351330  -0.13569127
H    1.99830462  -0.11942716  -1.21526479
H    0.63445808  -0.71377669  -3.21320286
H   -1.50222732   0.54541721  -1.88144566
