23
Energy: 0.524
O   -0.85599142   1.21409817  -1.52348500
C   -0.94494485  -0.17017066  -1.54744019
C    0.12099431  -1.08090364  -1.00534962
C   -0.12497329  -0.99893951  -2.49342117
H   -0.58591817  -1.83283837  -2.99876573
H    0.61852600  -0.48869220  -3.08891644
C    1.42036396  -0.56681831  -0.42731797
H    2.21313878  -1.28564057  -0.65663896
C    1.35173980  -0.37515911   1.09178084
C    0.36055962   0.68947837   1.49856328
C   -1.07085595   0.33629554   1.76171876
C   -0.17391543   0.71791736   2.89919303
H   -0.32234428   1.67418003   3.37715422
H    0.14272728  -0.05973286   3.57822500
H   -1.83561058   1.02904497   1.44795535
H   -1.36213110  -0.69914888   1.67521572
H    0.54305852   1.65226977   1.03553661
H    1.07886078  -1.32288848   1.56060821
H    2.34679641  -0.09904454   1.45408942
H    1.70100987   0.38067323  -0.89616536
H   -0.23237588  -1.97937143  -0.51323238
H   -1.97895088  -0.44805193  -1.38762431
H    0.07166705   1.46583629  -1.58856557
