23
Energy: 1.28
O   -1.45059475  -0.45410281  -1.94303578
C   -0.06328566  -0.57675130  -1.90867956
C    0.71995311   0.34707162  -1.02214863
C    0.80172678   0.49288573  -2.51630858
H    1.70650194   0.20153532  -3.02734060
H    0.29764514   1.34046792  -2.95665497
C   -0.00070542   1.38800410  -0.19929830
H    0.70810434   2.16715828   0.09428034
C   -0.65037876   0.78149526   1.04817590
C    0.35743605   0.17921050   1.99813492
C   -0.10061660  -0.78214842   3.05325864
C    0.71778574  -1.27190961   1.89754538
H    1.73978766  -1.56926376   2.08062558
H    0.22089399  -1.86267247   1.14340019
H    0.35853240  -0.73973960   4.02948832
H   -1.14764764  -1.04327241   3.07800628
H    1.15293981   0.86190516   2.27670522
H   -1.20891396   1.56575173   1.56781844
H   -1.35906877   0.01530311   0.73152123
H   -0.78133071   1.84687638  -0.80747799
H    1.57925300  -0.08648117  -0.52698208
H    0.28014890  -1.60713976  -1.99799398
H   -1.75494101  -0.52991595  -2.85437005
