23
Energy: 1.5
O   -2.72098132   0.19228454   1.50017280
C   -1.40434383   0.20431875   1.95567888
C   -0.32383167   0.62056105   1.00035005
C   -0.42507271  -0.81307378   1.44112931
H    0.31573368  -1.21138371   2.11683671
H   -0.79348783  -1.52397993   0.71780024
C   -0.68310157   1.01553974  -0.41165602
H   -1.48149939   0.36648540  -0.77311905
C    0.51347459   0.94949670  -1.36460537
C    1.02504494  -0.45738278  -1.56609894
C    2.39783985  -0.67635846  -2.12789392
C    2.11255934  -1.00587227  -0.69421617
H    2.07095203  -2.04435268  -0.40299305
H    2.52783857  -0.36110719   0.06472713
H    2.55118854  -1.48749382  -2.82347237
H    3.00353679   0.19235423  -2.33781549
H    0.25709927  -1.15301390  -1.88423597
H    0.20952275   1.35920290  -2.33243367
H    1.32013531   1.57594587  -0.97754624
H   -1.07207474   2.03692641  -0.39921580
H    0.48357364   1.20543121   1.42551569
H   -1.31061784   0.51341067   2.99625729
H   -3.17277810  -0.58102878   1.85676289
