23
Energy: 1.288
O    1.11146424  -0.74800654   2.09896257
C   -0.26165255  -0.72424072   2.32628453
C   -1.17327469   0.03198551   1.39462651
C   -0.86718456   0.57428581   2.76287697
H   -1.63310845   0.55969441   3.52198834
H   -0.19907763   1.41897005   2.81983030
C   -0.59804806   0.71171696   0.17461142
H   -1.17088623   1.61682065  -0.04394394
C   -0.62188497  -0.20651585  -1.05165627
C    0.00746361   0.46070274  -2.25127523
C    1.49679040   0.44352055  -2.41771806
C    0.63026249  -0.36577989  -3.33500180
H    0.52205057  -0.04364594  -4.35936682
H    0.63069203  -1.43921191  -3.21853100
H    1.98550972   1.32101197  -2.81241414
H    2.08582290  -0.08276487  -1.68161971
H   -0.50618845   1.36368338  -2.56001326
H   -0.08517213  -1.13204473  -0.82935008
H   -1.65711510  -0.47406706  -1.28252358
H    0.43111510   1.01105494   0.38343574
H   -2.16152405  -0.38690333   1.24351249
H   -0.64245193  -1.64182075   2.77313004
H    1.29193156  -1.24806268   1.29465275
