23
Energy: 0.132
O    1.26801034  -0.60776696  -1.92988811
C    1.28448345   0.77984108  -1.86255295
C    0.37869279   1.55901869  -0.94988937
C    0.18423145   1.61750606  -2.44595490
H    0.43977146   2.52216620  -2.97465105
H   -0.67509430   1.10488451  -2.85381562
C   -0.63354123   0.85215599  -0.07710208
H   -1.39967182   1.56558223   0.23841572
C    0.02998378   0.23303981   1.15803182
C   -0.95824401  -0.56699212   1.97221532
C   -1.23509436  -1.99474748   1.60877141
C   -0.47911695  -1.67246244   2.86249676
H   -0.96891291  -1.82166581   3.81261755
H    0.57924922  -1.88328534   2.88283637
H   -2.24367956  -2.36944320   1.69673592
H   -0.68251090  -2.42653893   0.78751676
H   -1.79938634   0.01685958   2.32875046
H    0.84838788  -0.41497392   0.83843380
H    0.45705672   1.02945196   1.77332695
H   -1.14239680   0.06518959  -0.64064168
H    0.81312006   2.43398980  -0.48138323
H    2.30611359   1.11643225  -1.98439785
H    0.36404449  -0.91214720  -1.79249706
