23
Energy: 0.223
O   -1.52661020   1.56907617   1.16871034
C   -1.68215471   0.19592189   1.01692890
C   -1.18307474  -0.55214824  -0.18768455
C   -2.66558294  -0.38924331   0.04654899
H   -3.24822847  -1.24662087   0.34444910
H   -3.19890514   0.29317548  -0.59999685
C   -0.50678171   0.17409483  -1.32947854
H   -0.47139345  -0.48683918  -2.19983291
C    0.91709976   0.61575802  -0.96876819
C    1.82892346  -0.55515231  -0.68797064
C    3.10648014  -0.33540704   0.06488008
C    1.97554813  -1.07811106   0.70866039
H    2.07793171  -2.14275201   0.85647565
H    1.42759333  -0.58070055   1.49408743
H    3.98481585  -0.88814900  -0.23207221
H    3.32143573   0.66249355   0.41586578
H    1.85622896  -1.28446175  -1.49005757
H    1.32566858   1.19820923  -1.80039285
H    0.88311929   1.26157884  -0.08942867
H   -1.09028504   1.05334866  -1.61732353
H   -0.76874453  -1.53370197   0.00198495
H   -1.58101792  -0.26901039   1.98946530
H   -1.62144113   1.98737824   0.30612586
