23
Energy: 1.071
O   -1.97941883  -0.95060713   2.13754471
C   -1.00722466  -0.04402226   2.55124202
C   -0.19385205   0.71444597   1.53429488
C    0.42551996  -0.41033382   2.31684901
H    1.14942627  -0.18923932   3.08511001
H    0.59999064  -1.33662688   1.79266825
C   -0.46306783   0.52556551   0.06046887
H   -0.83573924  -0.48669532  -0.10890030
C    0.80151451   0.74165870  -0.77499786
C    0.54472363   0.48738851  -2.24098616
C    1.66436163   0.05311910  -3.13713519
C    0.58134425  -0.91511104  -2.76787102
H   -0.13028529  -1.20552919  -3.52569786
H    0.82701439  -1.70861622  -2.07844363
H    1.69545596   0.43069961  -4.14787770
H    2.64047129  -0.08585842  -2.69753927
H   -0.19615059   1.15074632  -2.67275410
H    1.15617141   1.76691911  -0.63602690
H    1.58332595   0.06813049  -0.41907538
H   -1.23479261   1.22953214  -0.26635256
H    0.10085106   1.72122929   1.80707705
H   -1.25872814   0.46816727   3.47918039
H   -2.71989575  -0.46961355   1.75050279
