23
Energy: 0.0
O    1.15197097   0.54931581  -1.58852939
C    1.02301165   1.57864936  -0.66727599
C   -0.10474810   1.67476354   0.32091144
C   -0.00800131   2.66114755  -0.81853103
H    0.27024780   3.68249188  -0.61255704
H   -0.72576524   2.55870387  -1.61914234
C   -1.25067508   0.68776661   0.35267564
H   -2.14285164   1.21011035   0.71094427
C   -0.97780079  -0.51178722   1.26765218
C    0.12507366  -1.39794401   0.73827304
C    0.12554530  -2.86239891   1.05275074
C   -0.18235879  -2.39555991  -0.33830529
H    0.55088230  -2.56537641  -1.11195996
H   -1.20404970  -2.47800622  -0.68040214
H    1.06992568  -3.35208073   1.23397263
H   -0.68638341  -3.25563088   1.64621763
H    1.09107688  -0.91242498   0.68757927
H   -0.70973561  -0.14835981   2.26329221
H   -1.89507154  -1.09754201   1.36244657
H   -1.47326920   0.32652130  -0.65539916
H    0.15980502   2.04595486   1.30447022
H    2.01232165   1.86963219  -0.33465782
H    0.29200118   0.13351941  -1.71765514
