23
Energy: 1.42
O   -0.14588193  -1.14621725  -2.81264089
C   -0.57160710   0.12670539  -2.44086153
C    0.03374631   0.75024195  -1.21718288
C   -1.40321608   0.30678237  -1.20155994
H   -2.18687918   1.04911448  -1.20590643
H   -1.63453905  -0.58252368  -0.63495386
C    1.07250378  -0.00861346  -0.42687715
H    0.78257529  -1.05827851  -0.37239342
C    1.25904908   0.55048249   0.98677922
C    0.01365857   0.41320404   1.83040860
C   -0.32334756  -0.91266019   2.44226243
C    0.12732261   0.22184892   3.31226689
H   -0.59820158   0.69879067   3.95378139
H    1.11539380   0.16748089   3.74405714
H   -1.35816952  -1.21695109   2.48917603
H    0.36230405  -1.73200618   2.28672616
H   -0.81687276   1.01351487   1.48101439
H    2.08018478   0.01568073   1.46877292
H    1.53934804   1.60569022   0.92373646
H    2.02476349   0.04369370  -0.96071738
H    0.21580441   1.81775683  -1.26786566
H   -0.78636755   0.77557680  -3.28940253
H   -0.90362549  -1.65799942  -3.11785698
