23
Energy: 0.78
O    1.47388877   2.33801098   0.29019900
C    1.33480617   1.36782588   1.27550330
C    0.18109603   0.40448354   1.31272958
C    0.30662638   1.48288767   2.36234417
H    0.57614197   1.20727689   3.36966485
H   -0.38745309   2.30964507   2.31065689
C   -0.92433043   0.47193810   0.28207942
H   -1.77818374  -0.10989481   0.63867816
C   -0.48391824  -0.06670422  -1.08621632
C   -0.21200706  -1.55217941  -1.05954172
C   -1.35968624  -2.51604235  -1.08414124
C   -0.46717666  -2.38203174  -2.28085631
H    0.21243901  -3.18861483  -2.50986144
H   -0.86361050  -1.89018022  -3.15635748
H   -1.29712232  -3.41639404  -0.49205564
H   -2.35904616  -2.11291702  -1.15308859
H    0.64567843  -1.82903582  -0.45946357
H   -1.27259270   0.13797138  -1.81411044
H    0.41802376   0.45996158  -1.40752112
H   -1.26309201   1.50535499   0.16451836
H    0.41339978  -0.60309431   1.63293496
H    2.31993695   1.00187136   1.53563389
H    0.59898469   2.66039169   0.04782229
