19
Energy: 3.501
C   -1.04184924   0.88684424  -1.83681205
C   -1.00582464   1.33352840  -0.40537135
O   -1.02577062   2.48599253  -0.05829194
C   -0.91686314   0.19977676   0.60902140
H   -1.58185329  -0.61342869   0.31985907
H   -1.21301797   0.57881455   1.59207694
C    0.52353687  -0.29170011   0.67038215
C    0.82464149  -1.58068710   1.41323678
C    0.97165463  -1.51423696  -0.08226534
O    0.13898483  -2.22191044  -0.93923504
H   -0.63888036  -2.52317998  -0.45740065
H    1.97369552  -1.47976749  -0.48963576
H   -0.00895715  -2.13632908   1.81855533
H    1.72164132  -1.62291682   2.00984738
O    1.47920523   0.72149896   0.74298833
H    1.21871987   1.36173155   1.41699059
H   -2.02620122   0.47234683  -2.05124893
H   -0.86165525   1.72861581  -2.49945279
H   -0.30471009   0.10634761  -2.00673290
