19
Energy: 1.239
C   -0.56752982   2.04793926  -2.14759642
C   -0.58060478   0.67270913  -1.54080979
O   -0.57004618  -0.33732801  -2.20249034
C   -0.61613062   0.64528942  -0.02573065
H   -1.67107430   0.64664365   0.27072427
H   -0.13858645   1.52947664   0.39528911
C    0.04506238  -0.61340843   0.51514121
C    1.55349751  -0.61905466   0.61584736
C    0.71534328  -0.56811352   1.86196201
O    0.72459516   0.61618499   2.59608194
H   -0.09207846   0.67609872   3.10462908
H    0.65890361  -1.47410370   2.45881613
H    2.08236072   0.27958508   0.34179267
H    2.07597382  -1.53757987   0.40350452
O   -0.60573080  -1.79717941   0.19004591
H   -0.64990912  -1.83996942  -0.77969313
H    0.40522145   2.50133174  -1.96343181
H   -0.73452817   1.99144498  -3.21993691
H   -1.32418205   2.67473015  -1.68207723
