19
Energy: 3.131
C    0.35049400  -1.49182401   2.29596283
C    0.60083670  -0.17548485   1.61986550
O    0.49659623   0.89132344   2.17092530
C    0.94484016  -0.28799189   0.14560607
H    1.47272937  -1.21622587  -0.06728887
H    1.54231610   0.56637326  -0.17156924
C   -0.35148650  -0.28627504  -0.64675527
C   -1.22257771   0.94027020  -0.60408551
C   -0.45866111   0.59781086  -1.86360060
O    0.63983996   1.35511996  -2.24391310
H    0.37170833   2.27204897  -2.37752635
H   -1.04023629   0.21848472  -2.70494912
H   -0.86879892   1.76823285  -0.00915914
H   -2.29627181   0.82291944  -0.60774113
O   -0.92928581  -1.55650180  -0.65305504
H   -1.74255667  -1.54096027  -1.16788018
H   -0.07003655  -1.34335673   3.28685314
H   -0.32119579  -2.08367988   1.67813614
H    1.29133869  -2.03251920   2.38114536
