19
Energy: 0.0
C   -0.14864505  -2.53094181  -0.44069891
C   -0.42220780  -1.17091374  -1.00144139
O   -0.04807191  -0.81117551  -2.09501130
C   -1.14157175  -0.21583144  -0.06981991
H   -1.38388409  -0.69251246   0.87635011
H   -2.05123240   0.15307470  -0.54975668
C   -0.20688740   0.96868336   0.15470174
C   -0.25023413   1.71524520   1.45584942
C    0.91543104   0.80218807   1.14910472
O    1.03311784  -0.41344373   1.82404974
H    1.33443420  -0.24394176   2.72456767
H    1.86271138   1.27759120   0.90845943
H   -0.96241985   1.39009333   2.19837627
H   -0.07922910   2.77868133   1.42046744
O    0.04074624   1.72431660  -0.98067739
H    0.18348099   1.10703598  -1.72048980
H    0.47204964  -2.40233987   0.44521283
H   -1.07937581  -3.00375098  -0.13501326
H    0.36515381  -3.15316469  -1.16827591
