19
Energy: 2.138
C    1.48075519   1.02284106   1.97912552
C    1.10105633   1.20547340   0.53908215
O    0.80785833   2.26779553   0.04867321
C    1.03117781  -0.08522336  -0.25292953
H    1.84733737  -0.75349028   0.02400543
H    1.08682760   0.12772974  -1.32182256
C   -0.29503412  -0.77225083   0.07526054
C   -1.58530653   0.00407291  -0.02955342
C   -1.27993990  -1.06090023  -1.03940269
O   -1.00189610  -0.75624233  -2.36277132
H   -0.85372854   0.19301999  -2.44580670
H   -1.82587391  -1.99512491  -0.98097888
H   -1.52024868   1.03752851  -0.33788589
H   -2.34113518  -0.19303841   0.71338762
O   -0.22921493  -1.67304964   1.14023521
H    0.19117395  -2.49086713   0.84747566
H    2.52745737   0.73034954   2.04211287
H    1.33162199   1.94430537   2.53484488
H    0.88041493   0.22113453   2.40529483
