19
Energy: 1.945
C    0.53233927   0.80732519   2.75289773
C   -0.15272972   0.14654979   1.59126656
O   -0.51801602  -1.00635261   1.62677807
C   -0.35599795   1.02577618   0.38077202
H    0.03969928   2.02610550   0.56557591
H   -1.43550020   1.11372444   0.21478979
C    0.26514306   0.50721272  -0.92588885
C    1.16155892  -0.71039716  -0.95534964
C   -0.21881072  -0.77016135  -1.56238413
O   -1.23159554  -1.53132245  -1.02709993
H   -1.13372381  -1.55286315  -0.05690261
H   -0.28793930  -0.76647583  -2.64278505
H    1.33918168  -1.24992749  -0.03794470
H    2.00723595  -0.68608189  -1.62617508
O    0.56887697   1.54613243  -1.80885146
H    1.42794388   1.92658438  -1.58669284
H   -0.02774023   1.68976567   3.05567061
H    0.61075036   0.11829779   3.58981643
H    1.52742353   1.12861494   2.44982578
