19
Energy: 1.335
C    0.15843156   0.93728539   2.87553209
C    0.35135535   0.28551332   1.53430780
O    1.34092136  -0.34446549   1.24571823
C   -0.79421314   0.47580331   0.56178103
H   -0.76382440   1.50844459   0.20730336
H   -1.74598385   0.31587800   1.07197106
C   -0.66787531  -0.46340224  -0.62676097
C   -1.17407619  -0.01504935  -1.96853318
C    0.30560210  -0.08742283  -1.72010888
O    1.02058446   1.10247835  -1.62885664
H    1.73240005   0.97899998  -0.98816531
H    0.84630632  -0.90380328  -2.19431534
H   -1.62387750   0.96223998  -2.03557726
H   -1.60824217  -0.76107793  -2.61338379
O   -0.81291279  -1.81367005  -0.31299631
H   -0.01842025  -2.10237245   0.15559796
H    1.09461496   0.95027945   3.42727654
H   -0.22363937   1.94796245   2.75927180
H   -0.57376978   0.36239270   3.44040508
