19
Energy: 2.491
C   -0.63586890  -2.13334983  -1.52239743
C   -0.26005248  -0.68041282  -1.57959730
O    0.51153372  -0.22072323  -2.38322930
C   -0.87793421   0.16716321  -0.48379520
H   -1.91294396  -0.12465296  -0.30026380
H   -0.83661925   1.22199620  -0.75588059
C   -0.06570888  -0.03760147   0.79091330
C    1.38253598   0.36100217   0.79145510
C    0.38410834   1.18195826   1.56324475
O    0.00090357   2.43946267   1.11684750
H    0.78177446   2.99179947   0.99523446
H    0.40526715   1.08656982   2.64782473
H    1.77578735   0.76894102  -0.12727579
H    2.07074121  -0.25472562   1.34764395
O   -0.38414497  -1.18362340   1.51788204
H   -1.24531474  -1.06636780   1.93767929
H   -0.07064241  -2.70369006  -2.25416361
H   -0.43513271  -2.50594240  -0.51912800
H   -1.70045034  -2.24535546  -1.71846107
