19
Energy: 2.31
C    0.21129179   2.87897868  -1.05654446
C    0.60582345   1.43525976  -0.90128890
O    1.73414109   1.04322865  -1.07281902
C   -0.53114003   0.50649169  -0.51962565
H   -1.05258317   0.23991452  -1.44552786
H   -1.24184949   1.02649364   0.12263069
C   -0.02055277  -0.77428447   0.12489188
C    0.32326256  -0.75794125   1.60273461
C   -0.86476987  -1.53716459   1.10920487
O   -2.16741245  -1.18077222   1.43164567
H   -2.18560631  -0.26678494   1.73458720
H   -0.78148562  -2.61500749   1.06896724
H    0.14076656   0.15298131   2.15563431
H    1.19433249  -1.30485099   1.92559048
O    0.77033832  -1.55086375  -0.71321115
H    1.52973456  -1.00667665  -0.97952276
H   -0.71302695   2.96345942  -1.62238078
H    0.04454213   3.30636426  -0.06873393
H    1.00464277   3.43541395  -1.54833646
