19
Energy: 3.18
C   -0.39687735   0.55384639   2.05686693
C    0.93489583   0.17606812   1.46771824
O    1.98741925   0.46911953   1.97313028
C    0.86197029  -0.60371808   0.16606222
H    0.38663497  -1.56890941   0.35419355
H    1.88131089  -0.77762856  -0.19032870
C    0.05044787   0.12366043  -0.89501573
C   -0.26045745  -0.62535631  -2.17028915
C   -1.35962078  -0.31625338  -1.19514778
O   -1.92006282  -1.38364749  -0.50185041
H   -2.36150623  -1.04988954   0.28744858
H   -2.05946786   0.46777973  -1.47151313
H    0.06019080  -1.65224391  -2.23745566
H   -0.25067720  -0.08110039  -3.10111215
O    0.26939786   1.50008387  -0.97947980
H    1.18668742   1.66284414  -1.23131285
H   -0.25526689   1.04961690   3.01330165
H   -0.90052606   1.23154598   1.37014024
H   -1.01142136  -0.33360757   2.19009320
