19
Energy: 2.892
C   -0.43471558  -1.70424699   1.98087828
C    0.20125026  -1.35881567   0.66543464
O    0.06701490  -2.03866061  -0.32518907
C    1.03684414  -0.09672260   0.67811008
H    2.05997115  -0.36310539   0.39642982
H    1.05716170   0.34729406   1.67347916
C    0.56735128   0.98061452  -0.28952889
C    0.17105556   0.64716273  -1.70345183
C   -0.87701890   1.09221027  -0.71590692
O   -1.86387320   0.23021635  -0.25231130
H   -1.75613099  -0.63589957  -0.66274583
H   -1.28334887   2.09419463  -0.82347379
H    0.17796995  -0.39590715  -1.98384832
H    0.45421830   1.32053494  -2.49934544
O    1.30004286   2.14612462  -0.03377150
H    1.02995267   2.83732495  -0.64667664
H   -0.95448549  -2.65655099   1.91552556
H    0.32257670  -1.74801775   2.76030179
H   -1.14336827  -0.91919696   2.23843330
