19
Energy: 2.645
C   -2.41809375  -0.46522394  -1.13431853
C   -1.25622790   0.48050788  -1.06577038
O   -0.74489196   0.99218756  -2.03100682
C   -0.71554456   0.70170080   0.33452971
H   -1.51671356   0.67887059   1.07202665
H   -0.19435278   1.65862430   0.38879208
C    0.24162450  -0.43501698   0.66535310
C    1.34738470  -0.79853781  -0.30084567
C    1.68144282  -0.13881026   1.01130810
O    2.18798714   1.14991818   1.06630299
H    1.98517610   1.60605816   0.24116921
H    2.14644442  -0.73673840   1.78734995
H    1.43434108  -0.20910722  -1.20208710
H    1.59599305  -1.84035495  -0.43855262
O   -0.44492795  -1.45756942   1.33075294
H    0.17240496  -2.15108202   1.58431562
H   -2.59786641  -0.78299413  -2.15771839
H   -2.22520492  -1.32119742  -0.49188675
H   -3.30522296   0.04166943  -0.75786596
