19
Energy: 0.429
C    1.45601981   1.41982889   1.87145854
C    0.98268972   1.12882151   0.48251476
O    1.72677919   0.95484571  -0.45474125
C   -0.52036184   0.98376186   0.32931319
H   -0.84378345   1.46785872  -0.59215650
H   -1.05369703   1.39764086   1.18358902
C   -0.81582302  -0.50519355   0.22494085
C   -1.94145175  -0.98175673  -0.65228591
C   -0.50332635  -1.20994587  -1.06798515
O   -0.00852570  -0.51079794  -2.15398582
H    0.77033699   0.00266959  -1.87288859
H   -0.12832292  -2.23224259  -0.99624356
H   -2.50275380  -0.24410169  -1.20221566
H   -2.52152659  -1.83539788  -0.33534957
O   -0.56382351  -1.13018610   1.45244429
H   -0.71404923  -2.07678045   1.36506277
H    1.04662665   2.36934728   2.21008937
H    1.07576231   0.63665093   2.52565660
H    2.54143190   1.44938687   1.91257910
