19
Energy: 2.943
C   -1.57623366  -0.56844309  -1.19378277
C   -0.33838924   0.09553391  -1.71289124
O   -0.06029018   0.17938757  -2.88175088
C    0.57877219   0.68235927  -0.64321996
H    0.17173018   1.66091838  -0.37804443
H    1.56677138   0.84286994  -1.08688033
C    0.68878750  -0.19014272   0.59360469
C    1.23534715   0.41754261   1.87219961
C   -0.20992262   0.01534863   1.78422824
O   -1.23922861   0.94559799   1.79884004
H   -0.88708270   1.82178765   1.60800392
H   -0.51889899  -0.87872956   2.30967242
H    1.47369665   1.47155374   1.86882460
H    1.89309404  -0.18420925   2.47921374
O    1.01627744  -1.52295764   0.33337788
H    1.88832529  -1.56428429  -0.07836118
H   -2.04937152   0.03623320  -0.42433252
H   -2.26833906  -0.76519847  -2.00773051
H   -1.28263137  -1.51231910  -0.73573552
