19
Energy: 2.603
C   -0.65547059   2.52873897  -0.32394992
C   -0.04662877   1.25656746  -0.84546319
O    1.07194841   1.20612463  -1.29904982
C   -0.95756506   0.04735191  -0.78993997
H   -1.07539216  -0.33366450  -1.80882050
H   -1.94061175   0.33222160  -0.40818021
C   -0.42293229  -1.10204492   0.06332831
C    1.02363626  -1.49963813   0.00597562
C    0.49262414  -0.81921640   1.23458267
O    0.84833910   0.48520805   1.56130235
H    1.62641908   0.74677086   1.05509948
H    0.34755344  -1.42659358   2.12339423
H    1.66678344  -0.92948414  -0.64784343
H    1.24895417  -2.55234448   0.06371662
O   -1.33076486  -2.15461876   0.19314237
H   -2.05419493  -1.88885734   0.77366729
H    0.03149302   3.35978355  -0.45945231
H   -1.58843955   2.73396039  -0.84458837
H   -0.87169693   2.40553766   0.73517251
