19
Energy: 1.179
C   -1.26551900   0.98616826   2.58775053
C   -0.59228570  -0.00681154   1.68060517
O   -0.70464400  -1.20169919   1.82023455
C    0.24789797   0.60719811   0.58258121
H    1.23793757   0.80959582   1.00450327
H   -0.16758065   1.55562872   0.24618693
C    0.41532516  -0.33951079  -0.59394210
C   -0.68479687  -0.39416670  -1.63048252
C    0.65172540   0.23151981  -1.95742276
O    0.74652924   1.61567968  -2.08214837
H    0.44028944   1.86983628  -2.96033729
H    1.31608614  -0.33104386  -2.60716400
H   -1.52866733   0.26698829  -1.50638812
H   -0.91525032  -1.35044187  -2.07172004
O    1.08955875  -1.51688782  -0.29873085
H    0.60319426  -1.94325512   0.42675928
H   -1.66517524   0.48679893   3.46641166
H   -0.56686882   1.76498339   2.88243346
H   -2.08473697   1.45585049   2.04554385
