19
Energy: 2.925
C   -2.13559607  -0.21645608   0.20075120
C   -1.02820996  -1.22594921   0.16916895
O   -1.11689716  -2.29997266  -0.37188480
C    0.25633762  -0.80627788   0.87346423
H    1.04494384  -1.51813918   0.61835327
H    0.06935449  -0.88767531   1.94831375
C    0.68033810   0.62689066   0.57061852
C    2.03206672   0.85921893  -0.07412037
C    0.76893138   1.09646461  -0.85740154
O    0.39484168   0.31380313  -1.93444156
H    0.62159739  -0.60917368  -1.77293114
H    0.48843959   2.12432850  -1.04777715
H    2.63150915  -0.00534370  -0.31778574
H    2.60183186   1.72161236   0.23580350
O    0.22578518   1.57756408   1.48752129
H    0.78284308   1.56251008   2.27565202
H   -3.09980331  -0.71423519   0.14079087
H   -2.07499699   0.41639274   1.08024200
H   -2.02662555   0.41699410  -0.67935139
