19
Energy: 1.042
C    0.54460714   0.12800301   2.90697332
C   -0.00569091  -0.26954215   1.56890405
O   -1.16917364  -0.55372783   1.39428173
C    0.98988715  -0.27503631   0.42791764
H    1.12782891  -1.31011901   0.10866069
H    1.94924364   0.14125836   0.73442782
C    0.44059992   0.51542270  -0.75760288
C    0.76562171   0.06081416  -2.15421034
C   -0.62433451  -0.12923707  -1.60872458
O   -1.06072031  -1.41127031  -1.32052280
H   -1.43610560  -1.40643207  -0.42329490
H   -1.39910106   0.53208586  -1.99670015
H    1.38230516  -0.81533163  -2.27061571
H    0.91183148   0.82202196  -2.90292985
O    0.38292765   1.89332349  -0.54023470
H   -0.44471590   2.11860188  -0.09866071
H    1.38075035  -0.51846454   3.16545924
H    0.91788281   1.14926692   2.84859637
H   -0.22398298   0.06231177   3.67266799
