19
Energy: 0.77
C    1.02825173   1.24615875  -2.16465869
C   -0.10099076   0.54749521  -1.47260539
O   -0.65180221  -0.43087236  -1.92140090
C   -0.45109640   1.08635891  -0.09918833
H   -1.52103948   0.97772876   0.07674938
H   -0.15575237   2.13014697   0.01344469
C    0.30118057   0.21798511   0.90998009
C   -0.34897568  -0.10954584   2.22874726
C   -0.20861231  -1.17577695   1.17076620
O   -1.35247480  -1.63788133   0.54957097
H   -1.28040534  -1.49951218  -0.41123503
H    0.55209093  -1.93563164   1.33764469
H   -1.33911476   0.27344020   2.41658713
H    0.28438348  -0.17832716   3.09976870
O    1.68719058   0.38324211   0.87794192
H    1.93340104   1.13857458   1.42643992
H    1.21266782   0.80480349  -3.14012070
H    0.81449666   2.30743169  -2.26949400
H    1.91388560   1.13575878  -1.53865765
