19
Energy: 3.51
C   -0.10599961  -1.81926700  -1.73016047
C   -0.27224224  -1.69453163  -0.24143534
O   -1.10171187  -2.30434196   0.38573342
C    0.66290885  -0.70154091   0.42383423
H    1.69366087  -1.01332727   0.24592095
H    0.48346995  -0.69690799   1.50132560
C    0.51272167   0.69543580  -0.15440672
C   -0.87011838   1.25833019  -0.41109022
C   -0.02332497   1.81175282   0.70707523
O   -0.37089774   1.63806696   2.03657659
H   -0.90651559   0.84112976   2.12665986
H    0.40883779   2.79845911   0.58340886
H   -1.71900018   0.64596253  -0.14303339
H   -1.03174061   1.86685862  -1.28831291
O    1.53485889   0.95373221  -1.07473396
H    1.49228402   1.87156494  -1.36132670
H   -0.82450776  -1.15498321  -2.20913582
H    0.89090774  -1.52691595  -2.04252015
H   -0.33087139  -2.83448482  -2.04711752
