19
Energy: 1.004
C   -0.38095128   0.74254352  -2.66662759
C    0.44945240   0.35237352  -1.48132227
O    1.26262718  -0.54366741  -1.51429431
C    0.17877330   1.13565153  -0.21826237
H   -0.40967905   2.02662451  -0.43818115
H    1.13850440   1.43368924   0.21816777
C   -0.59315271   0.31823619   0.83105818
C   -1.04056607  -1.09905990   0.56612460
C    0.09616247  -0.83495964   1.51877086
O    1.40399235  -1.17686198   1.24042553
H    1.55893715  -1.10981575   0.28058315
H   -0.09945587  -0.96780614   2.57669834
H   -0.82143815  -1.54807669  -0.38982079
H   -1.99048998  -1.38932025   0.98571928
O   -1.48404706   1.09705788   1.57416777
H   -1.00309895   1.57634170   2.25957788
H   -0.15108331   1.76826110  -2.94929718
H   -0.18422627   0.08215707  -3.50721409
H   -1.43401494   0.69862243  -2.39464884
