19
Energy: 2.562
C    2.23520542   1.33211663  -0.17402216
C    1.04493250   0.91678240   0.64087672
O    0.30409338   1.70941361   1.17517318
C    0.83680103  -0.57827235   0.75054305
H    0.77941061  -0.83384780   1.81433119
H    1.67259606  -1.11652157   0.30159206
C   -0.44475923  -1.07559025   0.07848748
C   -1.75966317  -0.37205863   0.31164964
C   -1.11460471  -0.32130207  -1.04378840
O   -0.60248214   0.85343734  -1.57166087
H   -0.70927715   1.56962953  -0.93434672
H   -1.53704405  -0.93733564  -1.82905241
H   -1.73867311   0.52895406   0.90773675
H   -2.64505780  -0.97659617   0.43704866
O   -0.47257216  -2.46603715  -0.04972375
H   -0.66785496  -2.86590507   0.80695192
H    2.33626089   2.41424003  -0.17772249
H    3.13760487   0.87928220   0.23122073
H    2.10166621   0.97299453  -1.19268352
