19
Energy: 2.815
C   -0.58717807   0.34700429   2.05192761
C    0.21532769   1.16522557   1.08417931
O    1.17614461   1.82134364   1.40064550
C   -0.26457705   1.11963663  -0.35933426
H    0.48537095   1.58949334  -0.99860348
H   -1.17830414   1.71701714  -0.41530147
C   -0.61601802  -0.27429014  -0.84977329
C    0.11352532  -0.83446174  -2.05094360
C    0.36217503  -1.40424772  -0.67371688
O    1.57367982  -1.26517971  -0.01308005
H    1.92852535  -0.37979992  -0.15139440
H   -0.03095444  -2.39335482  -0.46499617
H    0.88615696  -0.22909886  -2.50003300
H   -0.43328674  -1.43626724  -2.76130475
O   -1.98798173  -0.51017533  -0.69873524
H   -2.20072768  -1.39917016  -0.99972922
H   -1.62212039   0.26811203   1.73431797
H   -0.15626441  -0.65363828   2.07781446
H   -0.51552254   0.77016454   3.05035685
