19
Energy: 2.132
C   -0.71423751  -0.89144120  -1.73360912
C    0.57144960  -0.12846047  -1.63446240
O    1.44243711  -0.16835300  -2.46635467
C    0.71052091   0.72233827  -0.38067971
H    0.05811367   1.58916509  -0.50138154
H    1.74535609   1.06876761  -0.30170563
C    0.29991576  -0.01588729   0.87877804
C    0.07415022   0.78782401   2.13980418
C   -1.08761010   0.14307323   1.42186946
O   -1.98669070   0.93463363   0.71353408
H   -2.57296279   1.37958690   1.33625120
H   -1.52725097  -0.73544062   1.88677382
H    0.17095176   1.86036038   2.07330435
H    0.38471938   0.35771466   3.07878318
O    0.84270682  -1.29414435   1.02253100
H    1.80517710  -1.23117905   0.99350176
H   -0.85748507  -1.26534886  -2.74356928
H   -0.65709343  -1.73404096  -1.04550031
H   -1.54955984  -0.26830238  -1.42673868
