19
Energy: 1.22
C    1.33761393  -1.25107079  -2.31012236
C    1.02502842  -0.26684846  -1.21674427
O    1.88143148   0.28690555  -0.56838130
C   -0.45159090  -0.02896567  -0.97993154
H   -0.98679786  -0.97813251  -1.00445510
H   -0.82711092   0.59790657  -1.79404393
C   -0.69408180   0.67525966   0.34589901
C   -1.97339935   0.40877076   1.08515566
C   -0.68718254  -0.17268198   1.59953782
O   -0.51128386  -1.55343224   1.50262097
H    0.43344741  -1.74248631   1.46295134
H   -0.26554679   0.27579597   2.49556332
H   -2.68222738  -0.26838703   0.63688454
H   -2.40890145   1.22302357   1.64023484
O   -0.17726184   1.96451194   0.42368222
H    0.78408732   1.89756520   0.31454730
H    2.39733886  -1.22594938  -2.54996881
H    1.07532782  -2.25130886  -1.96866506
H    0.74784134  -1.03424451  -3.19696492
