19
Energy: 3.509
C    1.88120974  -0.01148510  -2.09100717
C    0.50013443  -0.37818466  -1.62438216
O   -0.49230176  -0.22357320  -2.29352293
C    0.43267481  -0.90733219  -0.20776194
H    1.37467072  -1.36133504   0.09707949
H   -0.37009695  -1.64009306  -0.12320697
C    0.15384232   0.27211286   0.72508898
C   -1.12721996   1.05299373   0.56574191
C   -0.94243136   0.17063037   1.76680666
O   -1.70016583  -0.96951311   1.95997763
H   -2.08843025  -1.24302050   1.12086874
H   -0.73761112   0.63848295   2.72115355
H   -1.80866232   0.73112864  -0.20877465
H   -1.09280766   2.12426816   0.70061548
O    1.31126531   0.96485503   1.08665363
H    1.32924478   1.82700530   0.65549241
H    2.42653472  -0.92859230  -2.30962743
H    1.83534296   0.59444329  -2.99213620
H    2.41617497   0.51235791  -1.30209941
