19
Energy: 3.389
C    1.70014065  -0.75412858   0.98929608
C    1.08655152  -1.30030425  -0.27003329
O    1.69419453  -1.98856351  -1.05132205
C   -0.36486066  -0.91268760  -0.50367401
H   -0.96374956  -1.35836621   0.29170014
H   -0.68635303  -1.31299652  -1.46844527
C   -0.57359268   0.59001702  -0.48112407
C   -1.95065892   1.14199466  -0.24692845
C   -0.89385943   1.28011013   0.82258077
O   -0.99066965   0.51477967   1.98334762
H   -1.72362329   0.84244432   2.51769341
H   -0.47174444   2.27145702   0.97112416
H   -2.75007121   0.43810462  -0.07560872
H   -2.22894008   2.02409360  -0.79990228
O    0.18142012   1.30904029  -1.41012367
H    1.08724994   0.97916168  -1.41896181
H    0.98375827  -0.76979737   1.80503254
H    2.59234792  -1.31980768   1.24492831
H    1.98603157   0.28457131   0.82614526
