19
Energy: 3.181
C    0.21158282   1.46854419   1.87889490
C   -0.85210820   1.42272707   0.81913666
O   -1.62996491   2.32183658   0.62577531
C   -0.88665415   0.15254285  -0.01511439
H   -1.51438265   0.33187611  -0.89299064
H   -1.36320450  -0.63669444   0.56849624
C    0.48712836  -0.31741333  -0.45323391
C    1.24719682  -1.33086279   0.35418161
C    0.63151163  -1.72850057  -0.96630554
O   -0.49911648  -2.53728544  -0.98698050
H   -0.24490750  -3.44693504  -0.79218489
H    1.31394208  -1.88011769  -1.80008736
H    0.78641668  -1.70803409   1.25364536
H    2.31927293  -1.22781736   0.39939153
O    1.27582233   0.66217643  -1.06032886
H    0.80917900   1.01298428  -1.82833513
H    0.17410717   0.57527810   2.49632419
H    1.18321126   1.50145876   1.38950344
H    0.08683474   2.35452269   2.49544158
