19
Energy: 1.371
C   -0.64265720   1.40536846  -2.48629617
C   -0.70526639   0.38977084  -1.38477678
O   -1.75029496   0.01979132  -0.89993051
C    0.63334733  -0.14929452  -0.93645482
H    1.44863024   0.34870470  -1.46119020
H    0.65990880  -1.21441313  -1.19355098
C    0.92948203  -0.02418726   0.55686587
C    0.03586828   0.74882304   1.50057279
C    0.11424015  -0.76017365   1.58462082
O   -0.94831575  -1.57461170   1.25053280
H   -1.44881148  -1.15339798   0.52689068
H    0.64078416  -1.18866957   2.43154259
H   -0.87035732   1.18940802   1.11595848
H    0.50481969   1.33041580   2.28034990
O    2.32091891   0.07812331   0.70872912
H    2.55107923  -0.02963912   1.63695274
H   -0.11920041   0.98579743  -3.34293994
H   -1.64283781   1.71321839  -2.78017136
H   -0.07835969   2.26986125  -2.14094699
