19
Energy: 3.109
C   -1.38190807  -1.81359858  -0.11274593
C   -1.34559053  -0.52231785   0.65231174
O   -1.58437029  -0.44168709   1.83221726
C   -0.98396702   0.70741451  -0.16528237
H   -1.02371705   1.58985171   0.47587135
H   -1.72029119   0.81918441  -0.96385274
C    0.37777192   0.57761679  -0.83141475
C    1.45589044   1.58568525  -0.50237659
C    1.58222395   0.15255323  -0.03568026
O    1.53920572  -0.20758773   1.30064858
H    0.81780285   0.24644604   1.75134941
H    2.32269981  -0.46541233  -0.53248622
H    1.22989109   2.34298691   0.23261388
H    2.11045589   1.92703758  -1.29031278
O    0.22791821   0.12820426  -2.15029041
H    1.09250882   0.04255095  -2.56436605
H   -2.40143232  -2.19597880  -0.10575868
H   -1.04835960  -1.67952411  -1.13603814
H   -0.75821339  -2.54676152   0.39509716
