23
Energy: 0.171
C    0.16711613  -2.66067462  -3.22567416
C    0.07739619  -1.35868446  -2.43801628
C   -0.41310193  -1.60630890  -1.01239155
H   -1.36287724  -2.14248224  -1.06637946
H    0.29720875  -2.25095953  -0.48904221
C   -0.63383011  -0.32810250  -0.19552878
C   -1.45306838  -0.62766679   1.05881070
H   -0.95125070  -1.37188543   1.67493912
H   -2.43213673  -1.01330660   0.78634354
H   -1.59960736   0.27399187   1.65007030
H   -1.18028425   0.39749538  -0.80620468
C    0.70833487   0.31036657   0.18840483
H    1.32830550   0.45976087  -0.69827544
O    0.51881870   1.59694496   0.75214589
C    0.59700450   1.75421305   2.06198177
O    0.36594159   2.78140117   2.62029876
H    0.91770875   0.83214926   2.60133530
H    1.24285426  -0.33493953   0.89846634
H   -0.61149422  -0.67767732  -2.94189518
H    1.06071432  -0.88584386  -2.42281558
H    0.85938683  -3.34954753  -2.74676820
H   -0.80721015  -3.14049019  -3.28372846
H    0.51678819  -2.47136590  -4.23744653
