23
Energy: 0.645
C    3.37447387  -2.06191768  -0.97032096
C    2.04682213  -1.31274283  -0.94869366
C    1.96872396  -0.37567821   0.25591300
H    2.08260860  -0.96791605   1.16715828
H    2.81028260   0.31904066   0.21173588
C    0.67838836   0.44745267   0.36603297
C    0.49846159   1.41768430  -0.79950663
H    0.35250551   0.88482665  -1.73630003
H    1.37462518   2.05363118  -0.89690322
H   -0.36585091   2.05707041  -0.63019660
H    0.74248516   1.03500080   1.28874221
C   -0.55077052  -0.46089045   0.51196789
H   -0.35604174  -1.24399987   1.24980594
O   -1.66050998   0.27467774   1.00025344
C   -2.60190933   0.66801624   0.16025448
O   -3.51690674   1.36549719   0.47072149
H   -2.46834387   0.27113666  -0.87347353
H   -0.80841364  -0.92277533  -0.44916231
H    1.23100666  -2.03660889  -0.91039234
H    1.94914952  -0.74009359  -1.87165722
H    4.20609518  -1.36339482  -1.02880547
H    3.49182673  -2.65777048  -0.06793307
H    3.42422880  -2.72688765  -1.82905862
