23
Energy: 0.566
C   -1.13001319  -0.50295399  -2.82715858
C   -0.82954605   0.88207946  -2.26661476
C   -0.35778984   0.85592026  -0.81146690
H   -0.24764443   1.88667010  -0.46181714
H   -1.13963314   0.38101917  -0.21227621
C    0.96146774   0.11276836  -0.57296137
C    2.14271989   0.80119757  -1.25069966
H    2.23607061   1.82818931  -0.90377210
H    2.01140294   0.81201123  -2.32821850
H    3.06929963   0.27691018  -1.02888709
H    0.87020141  -0.90820820  -0.95242211
C    1.23974310   0.00786016   0.93465953
H    1.22424455   1.00557737   1.39379013
O    0.29834124  -0.83471557   1.57530982
C   -0.68598560  -0.30074945   2.27765044
O   -1.56835136  -0.93388968   2.76797344
H   -0.60510423   0.80677912   2.38314973
H    2.21988903  -0.44696494   1.10338114
H   -1.74076744   1.48325736  -2.30895389
H   -0.08558049   1.37783980  -2.89209974
H   -0.22314039  -1.09353310  -2.92825162
H   -1.81813455  -1.03585463  -2.17478334
H   -1.58665838  -0.41800508  -3.81052880
