23
Energy: 0.174
C   -1.03155467   2.32055187   2.22559459
C   -0.41121708   1.40251886   1.17929594
C   -0.23366406  -0.01419583   1.72198337
H    0.35759117   0.03673810   2.63981141
H   -1.21051749  -0.42771130   1.98428840
C    0.46946538  -0.97070141   0.75344968
C    0.78717225  -2.29130972   1.45429542
H   -0.13063021  -2.78168494   1.77073457
H    1.40046139  -2.11233585   2.33327306
H    1.32777523  -2.96522375   0.79348588
H    1.40776276  -0.50871058   0.42387602
C   -0.37602647  -1.25962818  -0.49621494
H   -1.41312891  -1.45869292  -0.21742326
O   -0.42611378  -0.16396660  -1.39694567
C    0.56581233  -0.00530590  -2.25739710
O    0.66014303   0.92666896  -2.99380758
H    1.30525531  -0.83950446  -2.24097260
H    0.02820830  -2.13736433  -1.01722013
H    0.56205404   1.79942845   0.88120201
H   -1.04573478   1.38425939   0.29337338
H   -1.15279514   3.32416488   1.82604550
H   -2.00959612   1.95108775   2.52659706
H   -0.40066121   2.37724280   3.11052380
