23
Energy: 0.664
C   -2.45403247  -0.22628339   2.45031914
C   -1.21674140  -0.96636094   1.95425805
C   -0.05113834  -0.04067369   1.60271362
H    0.23754046   0.51283667   2.49918009
H    0.79999085  -0.65408108   1.30109597
C   -0.33087812   0.97494129   0.48873097
C    0.87320518   1.89926690   0.31162709
H    1.75540003   1.32982590   0.02465359
H    1.09244617   2.41366648   1.24375692
H    0.67842021   2.64921565  -0.45280706
H   -1.19925936   1.58328811   0.75841981
C   -0.67059438   0.28065636  -0.83943738
H   -0.80398522   1.03363494  -1.62791693
O    0.33652001  -0.64028285  -1.22109900
C    1.23636170  -0.28536546  -2.12030960
O    2.17081628  -0.96091855  -2.42252627
H    1.03100221   0.70591301  -2.58836342
H   -1.59241207  -0.29725755  -0.74420611
H   -1.47588961  -1.58262175   1.09241346
H   -0.87521818  -1.64280626   2.74094417
H   -2.19682553   0.43432242   3.27554581
H   -2.90455499   0.36929442   1.65990614
H   -3.19960729  -0.93590082   2.80137506
