23
Energy: 0.663
C   -2.40228394  -0.35326956   2.70640874
C   -1.00765127   0.21054181   2.95040939
C    0.04774056  -0.35340816   1.99724747
H    1.02520084   0.04272736   2.28466399
H    0.08183243  -1.43837493   2.12344484
C   -0.19027592  -0.04118531   0.51528126
C   -0.16776143   1.45748663   0.22764439
H    0.75860940   1.90299748   0.58657818
H   -1.00127190   1.95467862   0.71473385
H   -0.25240722   1.64161880  -0.84181250
H   -1.15740246  -0.44746770   0.20767848
C    0.88332237  -0.75781573  -0.31795414
H    0.91539485  -1.81974506  -0.05851812
O    0.58410637  -0.69801921  -1.70127231
C    1.23238231   0.15700370  -2.47323912
O    0.97965622   0.33254606  -3.62448151
H    2.05630116   0.69345612  -1.94648252
H    1.86944934  -0.31292206  -0.12830815
H   -0.70136491  -0.03634015   3.96962155
H   -1.03436877   1.29821313   2.87541826
H   -2.38248690  -1.44066129   2.72629206
H   -3.08565106  -0.00961517   3.47933950
H   -2.79407333  -0.03273397   1.74485092
