23
Energy: 0.38
C    1.04567365   0.05129275  -3.40437556
C    1.62095077  -0.23161484  -2.02176877
C    0.51738756  -0.30949547  -0.96823168
H    0.02005592   0.66075368  -0.89811244
H   -0.22331238  -1.04068202  -1.30551528
C    1.02239228  -0.72319752   0.41883613
C    1.91660514   0.34016272   1.05085815
H    2.79332875   0.52234738   0.43687771
H    2.25028862   0.01661732   2.03401794
H    1.36618838   1.27043772   1.16417899
H    1.58601973  -1.65816160   0.32297441
C   -0.16332522  -1.01821797   1.35272904
H    0.20250752  -1.34245403   2.33087194
O   -0.93979118   0.14331084   1.58859044
C   -2.07396868   0.31513635   0.93357804
O   -2.73508328   1.30398456   1.00514106
H   -2.36752351  -0.56481811   0.31434519
H   -0.79640418  -1.80784224   0.92629713
H    2.32680938   0.55838532  -1.76335144
H    2.16820024  -1.17713453  -2.04182994
H    1.84101296   0.11565839  -4.14298239
H    0.36193631  -0.73963012  -3.70536308
H    0.50031720   0.99234263  -3.40415757
