23
Energy: 0.723
C   -0.44667718  -0.35974980  -4.02693793
C    0.08663058  -0.58136531  -2.61588051
C   -0.97142465  -0.22935592  -1.57126236
H   -1.25595386   0.81813395  -1.70261017
H   -1.86167102  -0.83356153  -1.75945965
C   -0.55256630  -0.44606333  -0.11103244
C   -0.27634315  -1.91086127   0.21726145
H   -0.04408836  -2.01382214   1.27427463
H    0.56946349  -2.28448013  -0.35340042
H   -1.14747928  -2.52068107  -0.00825679
H   -1.38675410  -0.11077333   0.51911554
C    0.66245890   0.41601979   0.25842899
H    0.51796901   1.44568567  -0.09331013
O    0.88355336   0.41378579   1.66101144
C    0.24337649   1.29835165   2.40689675
O    0.29545742   1.32254994   3.59704921
H   -0.34386589   2.03721611   1.81291692
H    1.57508739   0.00701231  -0.17841511
H    0.97394995   0.03663955  -2.46919855
H    0.38023767  -1.62586534  -2.50854864
H    0.31111799  -0.61020949  -4.76518015
H   -1.32013382  -0.98228312  -4.20734087
H   -0.73325355   0.67995415  -4.16921263
