23
Energy: 0.081
C    0.19053512   3.75893595   1.36586107
C    0.45589979   2.36696557   0.80421065
C   -0.68305888   1.40583644   1.14222045
H   -0.82744840   1.41364447   2.22462370
H   -1.60885256   1.76241862   0.68508017
C   -0.43138676  -0.04179055   0.70766550
C   -1.42756342  -0.98928014   1.37299649
H   -2.44709339  -0.68242267   1.15015351
H   -1.29324999  -0.98739017   2.45164590
H   -1.28433708  -2.00271382   1.00702415
H    0.58264861  -0.33173999   1.00832542
C   -0.52871697  -0.18515064  -0.81719927
H    0.12904370   0.53603149  -1.31594911
O   -0.19315510  -1.49989305  -1.23484121
C    1.07673801  -1.78646971  -1.46727318
O    1.47048691  -2.87832761  -1.73661008
H    1.75044561  -0.90028187  -1.40181491
H   -1.55759022  -0.02385944  -1.14696064
H    1.38886156   1.98133117   1.22153618
H    0.57951273   2.44103967  -0.27786268
H   -0.72957062   4.16695208   0.95353747
H    0.09328011   3.72175170   2.44846533
H    1.00658855   4.43308807   1.11766807
