23
Energy: 0.207
C   -0.97455042  -2.07905695   2.89412194
C   -1.38339238  -1.34669964   1.62155222
C   -0.55432740  -0.07947716   1.42268997
H   -0.62627119   0.52833303   2.32733649
H    0.49370327  -0.35091287   1.28594175
C   -1.00352848   0.77556279   0.23270594
C   -0.31763260   2.14063433   0.26728921
H   -0.64558467   2.76173677  -0.56411763
H    0.76336509   2.02694874   0.21275331
H   -0.55675193   2.65833942   1.19255853
H   -2.08811333   0.92257295   0.28572553
C   -0.71908423   0.07057917  -1.10349318
H   -1.01439244   0.72135126  -1.93739547
O    0.64834739  -0.27833103  -1.22824406
C    1.45279474   0.48447352  -1.94683406
O    2.63015859   0.31546353  -2.02243654
H    0.92239860   1.29791924  -2.49521607
H   -1.28052489  -0.86399779  -1.16862076
H   -2.44267601  -1.08325081   1.67887649
H   -1.24909804  -2.01660251   0.77115337
H   -1.12397529  -1.44565723   3.76586897
H   -1.56494068  -2.98324332   3.02195223
H    0.07554387  -2.35799620   2.84977903
