23
Energy: 0.0
C   -1.60836535   1.75450633  -2.75645181
C   -1.61376589   1.48947923  -1.25585818
C   -0.96467579   0.14664953  -0.92822759
H   -1.53243232  -0.65705538  -1.40264332
H    0.04298564   0.13465596  -1.34935217
C   -0.86091354  -0.13208043   0.57488187
C   -2.21630559  -0.44189008   1.20368821
H   -2.66444205  -1.31161631   0.72865832
H   -2.89076296   0.40089522   1.08754453
H   -2.11047045  -0.64679152   2.26681441
H   -0.43288348   0.75098079   1.06462758
C    0.09245271  -1.31131024   0.81864676
H   -0.24126335  -2.18951220   0.26134511
O    1.40202205  -1.03350574   0.34834749
C    2.24310323  -0.40049797   1.14999646
O    3.33060782  -0.04385990   0.81930495
H    1.84220002  -0.24382330   2.17837399
H    0.12625074  -1.55491765   1.88828924
H   -2.64365195   1.50468843  -0.89473163
H   -1.06927725   2.28773071  -0.74623570
H   -2.16009473   0.97869980  -3.28281143
H   -2.07026269   2.71383408  -2.97718210
H   -0.58976747   1.76791459  -3.13733254
