23
Energy: 0.213
C   -3.10699310   0.66260960  -2.90000870
C   -2.52909743   0.61744188  -1.49052306
C   -1.05992472   0.19882607  -1.50590971
H   -0.97817565  -0.81727462  -1.89918950
H   -0.52020959   0.86038460  -2.18811119
C   -0.39300861   0.26264641  -0.12775722
C   -0.97000375  -0.76610491   0.84121950
H   -0.89544402  -1.76908072   0.42433537
H   -2.01499928  -0.55434420   1.04667172
H   -0.43424744  -0.74100227   1.78826365
H   -0.53748985   1.26292256   0.29273844
C    1.11982220   0.04837749  -0.29005808
H    1.52211463   0.74539321  -1.03048882
O    1.80978899   0.31439606   0.91789152
C    2.22559873  -0.69176422   1.66780934
O    2.73352571  -0.55460716   2.73697198
H    2.06980384  -1.69030745   1.19597391
H    1.32199017  -0.97985438  -0.61884562
H   -3.10977975  -0.08484810  -0.89143860
H   -2.61733184   1.60384849  -1.03053363
H   -2.56586676   1.37963211  -3.51341067
H   -3.03581343  -0.31431033  -3.37309629
H   -4.15372997   0.95516930  -2.87379777
