23
Energy: 0.463
C   -1.12750116   1.75367087   2.05659175
C   -1.09456479   0.26856944   2.39984981
C   -0.74702160  -0.61950531   1.20433570
H   -0.88203684  -1.66618979   1.48794783
H   -1.44832761  -0.40205198   0.39581633
C    0.67718527  -0.44220324   0.66607728
C    1.72940520  -1.01465879   1.61091556
H    1.55784990  -2.07673604   1.77125474
H    1.69201850  -0.51097126   2.57207862
H    2.72837109  -0.88545019   1.19995197
H    0.87176722   0.62481796   0.51659370
C    0.79564141  -1.12809319  -0.70287524
H    0.51734113  -2.18159426  -0.62607413
O   -0.09834637  -0.56463227  -1.65031976
C    0.27846495   0.51796145  -2.31095566
O   -0.43135761   1.11919451  -3.05536898
H    1.33667357   0.81014154  -2.11711787
H    1.82563179  -1.05403192  -1.07473608
H   -2.08196498  -0.02838540   2.76020857
H   -0.38736523   0.09688098   3.21327294
H   -1.77652089   1.93200290   1.20206294
H   -1.50662305   2.32576471   2.90024891
H   -0.13507034   2.12856061   1.81869662
