23
Energy: 0.531
C   -0.57002806  -1.42907754   1.98932220
C   -1.36685971  -1.40070425   0.69012019
C   -0.53377465  -1.77474693  -0.53714072
H   -0.08899770  -2.75861779  -0.36775235
H   -1.19643293  -1.85912131  -1.40245053
C    0.59378198  -0.79709353  -0.88637438
C    1.42478498  -1.35518374  -2.04152589
H    0.81121808  -1.46075858  -2.93351338
H    1.82095592  -2.33298163  -1.78110874
H    2.26135807  -0.70013217  -2.27443775
H    1.24466115  -0.67536408  -0.01440253
C    0.06139768   0.58957748  -1.27798433
H   -0.80194985   0.49436792  -1.94025888
O   -0.39312324   1.34420115  -0.16470291
C    0.49601844   2.00814826   0.55419415
O    0.23157309   2.59684849   1.55613458
H    1.52518680   1.97787491   0.12581902
H    0.84901440   1.15130201  -1.79696009
H   -1.80283635  -0.41085990   0.55642462
H   -2.18804838  -2.11767894   0.76611562
H    0.16419032  -0.62783100   2.02070673
H   -1.23635176  -1.29718921   2.83810573
H   -0.05261317  -2.38004986   2.10330204
