23
Energy: 0.177
C   -1.69485611  -0.58647982   2.79427718
C   -0.78114227   0.38808841   2.06076466
C    0.30259491  -0.35120875   1.27718273
H    0.87905121  -0.95703630   1.97946824
H   -0.16218109  -1.03955481   0.56650671
C    1.27117893   0.57404422   0.53150246
C    2.52164210  -0.18957575   0.09921924
H    2.25178817  -0.98924113  -0.58552849
H    3.02051769  -0.62258743   0.96233170
H    3.21960785   0.47408371  -0.40548395
H    1.56281461   1.39224837   1.19939863
C    0.61589421   1.22061742  -0.70030928
H    1.33050672   1.88758066  -1.19011163
O    0.25845510   0.24978064  -1.66817036
C   -0.99554573  -0.15868927  -1.74912223
O   -1.35761379  -1.04465665  -2.45968149
H   -1.69533636   0.41909396  -1.10120008
H   -0.26855608   1.80003898  -0.40850431
H   -0.30861656   1.05836245   2.78291320
H   -1.38582096   1.00200332   1.39002530
H   -2.18677599  -1.25181229   2.08806361
H   -1.12348352  -1.19268354   3.49358293
H   -2.45958867  -0.04963320   3.35050241
