23
Energy: 0.655
C    2.89937345   0.59596698   1.66358062
C    2.06364698  -0.57223157   2.17327639
C    0.57249035  -0.43039031   1.86272871
H    0.03793306  -1.26340988   2.32596552
H    0.20896985   0.49154405   2.32453711
C    0.22956129  -0.40247462   0.36923171
C    0.64162845  -1.68273448  -0.35172063
H    1.72286605  -1.76523681  -0.41016855
H    0.24422388  -1.68035664  -1.36376771
H    0.25201493  -2.55377753   0.17058069
H    0.73364130   0.44789234  -0.10216300
C   -1.28215469  -0.18600449   0.20718465
H   -1.60404347   0.69226855   0.78149602
O   -1.64232243  -0.02526365  -1.15601605
C   -1.59105372   1.18462998  -1.68789280
O   -1.78906656   1.40981852  -2.84098431
H   -1.35834885   1.98488202  -0.94720044
H   -1.83125932  -1.06347422   0.55610320
H    2.17375835  -0.63679368   3.25822658
H    2.44217967  -1.50417353   1.75237020
H    2.50127714   1.53919211   2.03169695
H    3.92605758   0.50086275   2.00898186
H    2.91246412   0.62687196   0.57727003
