23
Energy: 0.602
C   -1.42027443   2.77426177  -1.53958514
C    0.08318334   2.56184046  -1.40557410
C    0.52247414   1.12899771  -1.71500235
H    0.22794672   0.89646252  -2.74062947
H    1.61341559   1.07762780  -1.66821601
C   -0.05847023   0.04170492  -0.80343021
C    0.29380539  -1.34127708  -1.34945275
H   -0.12779876  -1.47186566  -2.34283096
H   -0.10664192  -2.12433980  -0.70884317
H    1.37352515  -1.46407981  -1.41764569
H   -1.14711827   0.13219635  -0.77287396
C    0.46175060   0.19427310   0.63218145
H    0.24486488   1.19425569   1.01394997
O   -0.19300290  -0.70554978   1.51069253
C    0.42608787  -1.80670944   1.89828291
O   -0.08386174  -2.65291949   2.56470878
H    1.48524423  -1.86501520   1.55376002
H    1.54651770   0.02402629   0.66059692
H    0.40419189   2.84906659  -0.40291299
H    0.59533623   3.22349693  -2.10824957
H   -1.76600051   2.44060408  -2.51538521
H   -1.96543943   2.22855440  -0.77423593
H   -1.66012054   3.82965279  -1.43448949
