23
Energy: 0.665
C    2.11926307  -2.32262515  -0.23146989
C    1.21091982  -1.35235274  -0.97804554
C    1.28492183   0.04503088  -0.36270040
H    1.11426394  -0.03115723   0.71494193
H    2.29933901   0.42707002  -0.49770365
C    0.30493929   1.07736423  -0.93851527
C    0.39507673   1.18967353  -2.45830962
H   -0.18758318   2.03706761  -2.81148106
H    0.01472413   0.29161372  -2.93801158
H    1.42846166   1.33475368  -2.76133318
H    0.56535998   2.04736482  -0.50083832
C   -1.14722802   0.78948248  -0.52871652
H   -1.45000263  -0.21569600  -0.84619633
O   -1.32149750   0.93097655   0.87051032
C   -1.34673703  -0.14661098   1.63624325
O   -1.38674573  -0.11162297   2.82685364
H   -1.34623817  -1.10140899   1.06085764
H   -1.81298433   1.52182076  -0.99350122
H    0.18743782  -1.73130868  -0.94499704
H    1.51602262  -1.31099691  -2.02471007
H    2.07580030  -3.31143192  -0.68203728
H    3.15035419  -1.97755020  -0.26002502
H    1.81637905  -2.40596903   0.81020394
