23
Energy: 0.675
C   -1.37031709  -3.24774193  -0.12161564
C   -0.24964655  -2.45681099   0.54420306
C   -0.67053696  -1.05245885   0.97996555
H   -1.50694755  -1.14145347   1.67684704
H    0.16081108  -0.58902083   1.51447506
C   -1.09384235  -0.11252349  -0.15495725
C   -1.66298878   1.18282098   0.42270402
H   -2.51960979   0.96719905   1.05616722
H   -1.98782434   1.85279297  -0.37128990
H   -0.91607583   1.69448747   1.02697673
H   -1.86875237  -0.59311955  -0.75928266
C    0.07901433   0.19479459  -1.09930753
H   -0.24310307   0.90498572  -1.87274098
O    1.19123618   0.72223864  -0.39725143
C    1.39700516   2.02696900  -0.38944759
O    2.24647092   2.55832525   0.25627664
H    0.70819146   2.58999226  -1.06221917
H    0.42974989  -0.71907651  -1.58369385
H    0.60884360  -2.39916474  -0.12624133
H    0.07579182  -2.99626614   1.43643791
H   -1.05154661  -4.27199678  -0.30021456
H   -2.25058552  -3.27091964   0.51718670
H   -1.65027237  -2.81277456  -1.07801636
