23
Energy: 0.596
C    0.79384220  -2.50511898  -2.22444158
C    1.72552451  -1.33173817  -1.94436547
C    1.83071773  -0.98123940  -0.45839756
H    2.23905862  -1.84642619   0.06839940
H    2.54320165  -0.16050148  -0.34119130
C    0.51772535  -0.59330877   0.23160051
C    0.74833259  -0.42452537   1.73271756
H    1.10395188  -1.35612948   2.16549177
H   -0.17518550  -0.14992858   2.23829748
H    1.49309405   0.34663765   1.92302444
H   -0.22064166  -1.38551358   0.08433573
C   -0.05868012   0.69696886  -0.36644740
H   -0.19580600   0.59134463  -1.44465330
O   -1.34561439   0.97325137   0.16079470
C   -1.48265981   1.89092917   1.10163942
O   -2.51222030   2.12200039   1.65571929
H   -0.54062931   2.44632285   1.32054579
H    0.61716285   1.53981124  -0.16849385
H    1.39926613  -0.46174710  -2.51675404
H    2.72832992  -1.58770584  -2.29449974
H    0.85865623  -2.79305289  -3.27102775
H    1.06990462  -3.36343073  -1.61609589
H   -0.23995017  -2.24735426  -2.01065413
