23
Energy: 0.182
C    1.97921276   0.07189088  -3.70076620
C    1.44727878  -0.58859383  -2.43458288
C    1.02986937   0.45237430  -1.39730166
H    1.90427600   1.03415422  -1.09720948
H    0.32082137   1.14137514  -1.86418118
C    0.38110606  -0.15848595  -0.15130485
C    1.35389331  -1.01548930   0.65417804
H    1.62785112  -1.91115452   0.10466055
H    0.89238169  -1.31659127   1.59138465
H    2.25704040  -0.45260556   0.87935247
H   -0.46451904  -0.78367238  -0.46273127
C   -0.17123452   0.96469684   0.73885570
H   -0.82763827   1.62373839   0.15610951
O   -0.88023154   0.44661726   1.85335164
C   -2.16652325   0.17060377   1.71556017
O   -2.82672627  -0.34643562   2.56183340
H   -2.58396555   0.48375049   0.73024432
H    0.64809423   1.55342772   1.15748577
H    2.22077551  -1.23496294  -2.01875402
H    0.58718153  -1.21335866  -2.68520134
H    1.21735968   0.70233760  -4.15409757
H    2.84399773   0.69111770  -3.47308698
H    2.27774629  -0.68036294  -4.42667268
