23
Energy: 0.591
C    1.81031813  -2.11625173  -1.37135293
C    2.12595476  -1.69761946   0.06023527
C    0.89911357  -1.68693792   0.97549456
H    0.47717429  -2.69411151   0.99272899
H    1.22084409  -1.44836700   1.99219124
C   -0.22028920  -0.71845554   0.57853474
C   -1.45534381  -0.95089204   1.44694657
H   -1.85472065  -1.94829477   1.28162057
H   -2.22662271  -0.22384483   1.20604114
H   -1.20262213  -0.84949242   2.50018105
H   -0.49748317  -0.89222893  -0.46631152
C    0.23264952   0.74130262   0.71137333
H    1.15109461   0.91571195   0.13925920
O   -0.77671864   1.63538407   0.26593967
C   -0.81600178   1.95872669  -1.01519609
O   -1.67267755   2.62672260  -1.50462676
H    0.04474136   1.55754778  -1.60049882
H    0.40799779   0.99005489   1.76058302
H    2.60560066  -0.71707214   0.05741544
H    2.84600983  -2.40387089   0.47997670
H    2.73008227  -2.22773681  -1.94066729
H    1.28420768  -3.06812492  -1.38153120
H    1.19279593  -1.37696411  -1.87526058
