23
Energy: 0.566
C    0.10306174   2.84464003  -1.22242379
C   -0.81587243   2.43759579  -0.07671971
C   -0.72180301   0.95180714   0.27587630
H   -1.46173416   0.73027575   1.05067874
H   -0.98741479   0.37590562  -0.61494767
C    0.65540528   0.48919516   0.76468838
C    1.05044813   1.14519260   2.08464392
H    0.30194794   0.94604679   2.84874387
H    1.14270961   2.22007583   1.96425680
H    2.00710378   0.76110169   2.43097494
H    1.40292911   0.72674515   0.00341310
C    0.66380929  -1.03722795   0.94147795
H   -0.14698835  -1.34550513   1.61534045
O    0.53783297  -1.70179959  -0.30315300
C   -0.62393208  -2.22947414  -0.64834553
O   -0.83652837  -2.72387158  -1.71144712
H   -1.39013007  -2.18211145   0.16095387
H    1.61986942  -1.35955832   1.36352565
H   -1.84916606   2.64505928  -0.36447645
H   -0.59699911   3.04493166   0.80290529
H   -0.05448600   2.19916094  -2.08357756
H   -0.10214943   3.87010929  -1.52090260
H    1.14846106   2.78270719  -0.93130850
