23
Energy: 0.718
C   -1.64910147   3.16140110  -0.57315610
C   -1.17510831   2.23977614   0.54537064
C    0.15134889   1.54401236   0.23552049
H    0.89141385   2.30784064  -0.01262141
H    0.49661083   1.02463638   1.13133835
C    0.09964278   0.52975817  -0.91346764
C    1.51463369   0.14382939  -1.34252205
H    1.49066693  -0.57182761  -2.16236840
H    2.06115295  -0.29690499  -0.51083592
H    2.05890955   1.02346496  -1.67646967
H   -0.41570435   0.97132820  -1.77139146
C   -0.69578473  -0.72346470  -0.51487291
H   -0.71313388  -1.43538249  -1.35098855
O   -0.14727042  -1.34680399   0.63371892
C    0.63163795  -2.40415720   0.49147847
O    1.20813784  -2.92648109   1.39451142
H    0.68722859  -2.77783918  -0.55781256
H   -1.72311988  -0.45784405  -0.25564848
H   -1.94696053   1.49969277   0.76186741
H   -1.03638108   2.83450103   1.45085698
H   -1.89441951   2.60214828  -1.47283209
H   -2.53969390   3.70231552  -0.26199836
H   -0.87734645   3.88752110  -0.81966864
