23
Energy: 0.463
C   -0.84470832   2.25310559   1.70791903
C   -0.63689779   2.57504033   0.23229901
C    0.03337580   1.44162861  -0.54536548
H    0.25608763   1.78973053  -1.55707268
H    0.98255390   1.20214167  -0.06102852
C   -0.79166535   0.15381777  -0.64561627
C   -2.01503133   0.31594848  -1.54262437
H   -1.71428960   0.61337555  -2.54470867
H   -2.68166908   1.07434706  -1.14356936
H   -2.56865619  -0.61796381  -1.61219324
H   -1.11821855  -0.13959167   0.35742446
C    0.09264552  -0.97727862  -1.19083011
H    0.52560319  -0.69214724  -2.15234561
O    1.19561120  -1.23813091  -0.33666815
C    1.02474948  -2.06039703   0.68561221
O    1.85748911  -2.27172104   1.51105633
H    0.02528779  -2.55413548   0.69547495
H   -0.50066977  -1.89157390  -1.32024852
H    0.00341138   3.45643859   0.15374607
H   -1.59480832   2.82883856  -0.22507370
H   -1.19261924   3.13591061   2.23932470
H   -1.58602786   1.46929925   1.84245595
H    0.08863481   1.92610461   2.16088273
