23
Energy: 0.347
C   -1.33531065   2.68757624  -2.40141067
C   -0.43052298   1.46519690  -2.30287598
C   -0.71384226   0.66871917  -1.03107458
H   -0.47841456   1.27829588  -0.15721868
H   -1.78223597   0.44237980  -0.99493775
C    0.06440976  -0.64873597  -0.94429996
C    1.56865780  -0.42420617  -0.80818812
H    2.09226136  -1.37472240  -0.72216858
H    1.78785003   0.17561635   0.07304449
H    1.95707900   0.09411772  -1.67963602
H   -0.12635293  -1.23527657  -1.85016463
C   -0.45900075  -1.48243455   0.23719571
H    0.08573217  -2.43411551   0.29876999
O   -0.33823575  -0.78102554   1.46211824
C    0.67131710  -1.05168079   2.27066276
O    0.90070809  -0.44161710   3.26841311
H    1.28501158  -1.92205334   1.93980935
H   -1.52519733  -1.68862305   0.10974455
H    0.60960891   1.79358656  -2.31447446
H   -0.58934208   0.82474138  -3.17400728
H   -2.38115608   2.38947077  -2.42644036
H   -1.18675744   3.34004396  -1.54412470
H   -1.11800390   3.25252022  -3.30479278
