23
Energy: 0.088
C   -2.44865818  -2.36599931  -0.57769505
C   -0.93641981  -2.20326391  -0.67296157
C   -0.53396502  -0.73027943  -0.62816225
H   -0.95357592  -0.21480833  -1.49642780
H   -0.97520205  -0.28766755   0.26922050
C    0.98199417  -0.51065723  -0.59176335
C    1.65260579  -0.89828242  -1.90689051
H    1.50533298  -1.95378026  -2.11306190
H    2.72233888  -0.70852226  -1.86116782
H    1.23564957  -0.32343992  -2.73108301
H    1.40355530  -1.11329664   0.21901008
C    1.30132391   0.96047801  -0.28276056
H    0.80209466   1.61569803  -1.00925114
O    0.90978234   1.30933646   1.03277425
C   -0.19689096   2.00746859   1.22222327
O   -0.64349713   2.26173501   2.29721281
H   -0.67002414   2.35375421   0.27318846
H    2.38081135   1.12760952  -0.33442768
H   -0.58704020  -2.65726866  -1.60158168
H   -0.46252373  -2.73063480   0.15762944
H   -2.94072146  -1.85455286  -1.40228459
H   -2.72239966  -3.41761246  -0.61462661
H   -2.82014842  -1.94722251   0.35493577
