23
Energy: 0.002
C    2.66414484  -2.07954322  -1.39030337
C    1.44956222  -2.03235956  -0.47124203
C    1.20058858  -0.61711431   0.04537679
H    2.06576830  -0.28393177   0.62323803
H    1.09481419   0.05320290  -0.81039084
C   -0.05778198  -0.49346217   0.91075898
C    0.10731745  -1.15699035   2.27498918
H    0.93814764  -0.70967069   2.81587058
H    0.30138592  -2.21895611   2.16046052
H   -0.79463771  -1.04027106   2.87184820
H   -0.89362221  -0.96662721   0.38134882
C   -0.40716051   0.98918908   1.10733323
H    0.44384224   1.52519930   1.53377846
O   -0.68678538   1.63069490  -0.12686194
C   -1.92326316   1.59310393  -0.59631240
O   -2.24064452   2.02538052  -1.66002640
H   -2.65104294   1.12949703   0.10977759
H   -1.26867580   1.08811896   1.78022303
H    1.61048307  -2.71297808   0.36668686
H    0.56901223  -2.37763896  -1.01783705
H    2.83082017  -3.09131501  -1.75219411
H    2.51867702  -1.42734731  -2.24837834
H    3.55635388  -1.75339640  -0.86022161
