23
Energy: 0.665
C   -3.45745305   0.46987879  -0.12316128
C   -2.38160514  -0.12434493   0.77918132
C   -1.12055240   0.73589902   0.87350473
H   -1.39427940   1.71193373   1.28063465
H   -0.42995269   0.26388428   1.57485990
C   -0.38006832   0.96453047  -0.44937790
C    0.77688308   1.94051076  -0.23843878
H    0.40491464   2.88628722   0.14715118
H    1.29623211   2.13599296  -1.17482570
H    1.49074705   1.54040668   0.47930174
H   -1.06758859   1.39445761  -1.18374618
C    0.13657362  -0.35484993  -1.04417737
H    0.70796728  -0.15041298  -1.95969654
O    0.94629927  -1.06309648  -0.12173931
C    2.26142411  -0.99137314  -0.22077465
O    3.01116885  -1.47450532   0.57008974
H    2.61020135  -0.44745943  -1.12987216
H   -0.69720240  -1.01641187  -1.28921317
H   -2.12427353  -1.12700310   0.43532967
H   -2.78823287  -0.22583804   1.78787902
H   -3.14408501   0.47656234  -1.16439755
H   -4.37123295  -0.11545629  -0.05228470
H   -3.68274425   1.49144246   0.17550436
