23
Energy: 0.206
C    1.63140414  -0.10527538  -3.32168501
C    1.18373036  -0.84486409  -2.06645890
C    1.28227702   0.05046345  -0.83295355
H    2.29543556   0.45471253  -0.77728780
H    0.59362150   0.89020463  -0.93929287
C    0.98069660  -0.67319655   0.48396404
C    1.37278152   0.19995348   1.67516162
H    0.81261251   1.13304526   1.66614600
H    2.43175923   0.44106284   1.63239857
H    1.17910293  -0.31426149   2.61470764
H    1.55773459  -1.60395914   0.52188299
C   -0.50149708  -1.06955704   0.57941508
H   -0.69490160  -1.55656433   1.54458883
O   -1.35211926   0.05352995   0.42995700
C   -1.87580599   0.62156682   1.50159184
O   -2.52067601   1.62341609   1.46982297
H   -1.67186553   0.06351077   2.44532571
H   -0.76361595  -1.76111457  -0.22429329
H    1.80927854  -1.72991489  -1.92434938
H    0.15432450  -1.17922309  -2.20291588
H    1.01280486   0.77420165  -3.48408947
H    2.66640524   0.21658163  -3.22849367
H    1.54968968  -0.74859900  -4.19454961
