19
Energy: 0.0
O    0.16348458  -2.12814301  -0.36275561
H   -0.52173507  -2.16198228  -1.04620263
C    1.04997007  -1.10878184  -0.75026029
C    0.30413692   0.17480357  -1.11994278
H    0.98312560   0.85303014  -1.64687666
C   -0.55960682   0.86431569  -0.04270062
C   -0.57778463   0.24760006   1.34703864
C    0.62675565   0.62023782   2.15762363
O    1.54061151   1.30043153   1.78426265
H    0.61007590   0.19588700   3.18142596
H   -1.46925552   0.57246277   1.89120113
H   -0.61287411  -0.84457921   1.28580163
H   -0.36036515   1.93367075   0.03405273
C   -1.73370059   0.51307749  -0.96330474
H   -2.25959197   1.36177443  -1.40773242
H   -2.46039249  -0.19258861  -0.54915214
O   -0.86416416  -0.11653513  -1.90656237
H    1.64117749  -1.43203649  -1.61841397
H    1.72549630  -0.92268348   0.08646858
