19
Energy: 3.509
O   -0.56419430  -0.65466259  -2.87704202
H   -1.39250346  -0.16595540  -2.96303559
C   -0.25525007  -0.73231626  -1.51149395
C   -0.29556798   0.65698391  -0.87334475
H    0.30724914   1.34093214  -1.48247125
C   -0.09926678   0.79683932   0.65124391
C    0.32551913  -0.40490957   1.48139708
C    1.80183475  -0.68122630   1.39027275
O    2.47276801  -1.12164780   2.27769996
H    2.23952040  -0.44492907   0.40057998
H    0.05823099  -0.24721474   2.52940310
H   -0.19184928  -1.30694132   1.14399952
H    0.53212716   1.65177446   0.89988064
C   -1.59121798   1.15798436   0.65971997
H   -1.85290235   2.14093190   1.05708333
H   -2.24229640   0.39804470   1.10326624
O   -1.64903586   1.12952353  -0.76577974
H    0.74797273  -1.15917791  -1.44488907
H   -0.96753937  -1.39467636  -0.99794659
