19
Energy: 3.89
O   -2.04621800   0.11061092   0.83140200
H   -1.59959764   0.84957503   1.26974340
C   -1.48840016  -0.09903189  -0.43586312
C   -0.42158753  -1.20117598  -0.45537585
H   -0.88075251  -2.14603926  -0.14533974
C    0.95814346  -0.93102442   0.18357801
C    1.17051197   0.26694826   1.10782572
C    0.68844256   1.58970904   0.59079611
O   -0.13859331   2.26509566   1.14510252
H    1.18448911   1.94139396  -0.33210511
H    0.67708320   0.06356243   2.06150862
H    2.24675342   0.36547578   1.28129126
H    1.32087134  -1.81769894   0.70753316
C    1.46075846  -0.89614599  -1.26497333
H    2.24234179  -1.61589903  -1.52040989
H    1.73991418   0.09021852  -1.64693839
O    0.18193262  -1.30369192  -1.75287694
H   -1.05904189   0.81781362  -0.85815243
H   -2.29592686  -0.42255857  -1.10162756
