19
Energy: 4.064
O   -2.07911641   0.47066628   1.89178563
H   -1.60634168  -0.14751209   2.46379530
C   -1.38165441   0.53878128   0.67850940
C    0.09915340   0.82551813   0.91790269
H    0.18890555   1.72729733   1.53627194
C    1.07137028   0.76096600  -0.27487760
C    0.52143411   0.64038010  -1.70055500
C   -0.32719113  -0.57747409  -1.96363316
O    0.05364449  -1.71118288  -1.87271946
H   -1.35714546  -0.35258121  -2.30182489
H   -0.03479242   1.54593848  -1.94338631
H    1.38471255   0.56856463  -2.36895941
H    1.77717664   1.59373680  -0.25793500
C    1.62195505  -0.48695854   0.42754339
H    2.67258731  -0.44391153   0.72407617
H    1.41708166  -1.43265528  -0.07878817
O    0.74975727  -0.28857170   1.54469023
H   -1.83801192   1.34720374   0.10200396
H   -1.48084198  -0.40644912   0.12377905
