19
Energy: 2.747
O    1.79774720   1.15341764   1.84449447
H    1.53476995   2.08009329   1.78338126
C    1.19505213   0.46550221   0.78096174
C   -0.31728152   0.68613116   0.77973226
H   -0.69216978   0.53688171   1.79969836
C   -1.17033659   0.02343275  -0.32100112
C   -0.49533996  -0.91983286  -1.30646595
C   -0.16179673  -2.24594509  -0.68221511
O    0.85291829  -2.85595274  -0.85521888
H   -0.96703789  -2.64248963  -0.03193441
H   -1.19907602  -1.12177193  -2.12113173
H    0.40499636  -0.48207136  -1.73812038
H   -2.06900833  -0.44794324   0.08153351
C   -1.41241218   1.46280302  -0.79543404
H   -2.44953809   1.80671367  -0.78338867
H   -0.95437505   1.71484076  -1.75677283
O   -0.66617191   1.99503742   0.29722674
H    1.42113912  -0.59333162   0.92719967
H    1.61744214   0.79690902  -0.17773907
