19
Energy: 3.503
O   -0.14785707   2.67208059   0.09221893
H    0.12430545   3.50890639   0.48259489
C    1.00235745   1.91525109  -0.21723581
C    0.58649069   0.71540591  -1.06496254
H    0.13255349   1.08237980  -1.99245151
C   -0.20190503  -0.41883506  -0.38278939
C   -0.61838333  -0.23646822   1.06668136
C   -1.50548982  -1.34397107   1.55353642
O   -1.91288373  -2.25986905   0.89814152
H   -1.77582611  -1.24284083   2.62451289
H    0.24620063  -0.18043955   1.73269813
H   -1.16633604   0.70511289   1.17082435
H   -1.06878535  -0.73743585  -0.96196271
C    1.04875772  -1.26049882  -0.66409655
H    0.91228434  -2.11261100  -1.33268147
H    1.60956498  -1.57708685   0.22068822
O    1.68544335  -0.16157483  -1.32488000
H    1.50431283   1.57004426   0.69686988
H    1.72318969   2.50244862  -0.80032660
