19
Energy: 3.532
O   -2.34471105  -0.30341198  -0.38235197
H   -2.55849270  -1.15641078  -0.77718507
C   -1.39194631   0.35196493  -1.18018511
C   -0.05136278  -0.38443999  -1.24173015
H   -0.23971554  -1.43624949  -1.50275936
C    0.99151528  -0.21241107  -0.11259848
C    0.66663149   0.60097067   1.13626814
C   -0.22168168  -0.17981309   2.06978431
O    0.09219529  -0.52845116   3.17294721
H   -1.20990014  -0.42359669   1.64302762
H    1.60139015   0.84600420   1.64589001
H    0.15682456   1.52702853   0.86602100
H    1.42398515  -1.16885291   0.18701545
C    1.82144399   0.49771963  -1.19118064
H    2.78380883   0.04385308  -1.43801177
H    1.94978789   1.57354701  -1.04039590
O    0.83412363   0.22376972  -2.18728113
H   -1.27189580   1.34901300  -0.75381125
H   -1.74456848   0.46668165  -2.21430053
