19
Energy: 3.07
O    2.27444084   0.26752737  -1.46084582
H    2.77547774  -0.53581379  -1.64101752
C    2.10122266   0.40155474  -0.07118678
C    1.22983940  -0.71338935   0.51026545
H    1.70440065  -1.68438487   0.30513972
C   -0.28359730  -0.69086504   0.20679186
C   -0.81641551   0.42650219  -0.68097422
C   -2.26259547   0.21848975  -1.02119935
O   -3.11757412   1.05410627  -0.95858082
H   -2.49403324  -0.81241333  -1.35940630
H   -0.69540476   1.40336203  -0.21154547
H   -0.25387564   0.42387745  -1.62017849
H   -0.65221298  -1.65445955  -0.15076516
C   -0.43322916  -0.50376377   1.72270832
H   -0.93765290  -1.31215094   2.25779894
H   -0.84858648   0.45765137   2.03590986
O    0.98461047  -0.55242527   1.90903713
H    1.63190708   1.37334211   0.08578708
H    3.06283644   0.39661051   0.45874325
