19
Energy: 3.912
O    1.01010751   1.77270483   0.26201951
H    1.96541400   1.66972026   0.33990049
C    0.37712554   1.02900679   1.27170705
C    0.60575640  -0.47532771   1.11077008
H    1.67816273  -0.69303696   1.21657663
C   -0.06154673  -1.18201207  -0.08919856
C   -0.82204134  -0.34649408  -1.10476736
C    0.07280300   0.51132299  -1.96287691
O   -0.28992379   1.46637884  -2.58410807
H    1.11748793   0.14723227  -2.02460143
H   -1.35356951  -1.02223542  -1.78369539
H   -1.57350953   0.28807712  -0.63383939
H    0.62843882  -1.85126734  -0.60712369
C   -0.89047916  -1.89704616   0.98723431
H   -0.78529594  -2.98339047   1.03692792
H   -1.95088573  -1.62949167   1.00732021
O   -0.16590370  -1.24725764   2.03480349
H   -0.68656105   1.26070131   1.20101280
H    0.72253932   1.32579280   2.27116173
