19
Energy: 2.349
O    2.15123704   0.22236029  -1.83806127
H    1.70404338   0.81951964  -2.45098838
C    1.17550986  -0.31861061  -0.98763009
C    0.30175256   0.78487386  -0.39614829
H    0.95317004   1.54700406   0.04568754
C   -0.91418234   0.40401031   0.47189894
C   -1.14746943  -1.05835717   0.81537326
C   -0.21923040  -1.55689770   1.88765869
O    0.58848080  -0.89677315   2.47389470
H   -0.35383737  -2.63401805   2.11202469
H   -2.17058972  -1.18734597   1.18361775
H   -1.04216280  -1.70333745  -0.05922624
H   -0.96468551   0.99657510   1.38601558
C   -1.73812406   0.98881294  -0.68149032
H   -2.35786021   1.85590010  -0.44031051
H   -2.33239871   0.25983915  -1.24215720
O   -0.56020800   1.36309737  -1.39341987
H    1.70775702  -0.84209531  -0.19032650
H    0.54863278  -1.03306579  -1.54209990
