19
Energy: 3.866
O    0.77864453  -0.45228490   2.49534794
H    1.16278214  -0.02727725   3.26909969
C   -0.36011524   0.27639588   2.09200520
C   -1.05578327  -0.49749896   0.97594076
H   -1.34996229  -1.47955618   1.36392260
C   -0.37803809  -0.54900075  -0.40888485
C    0.98829189   0.10334976  -0.56343431
C    1.57029374  -0.13580488  -1.92449493
O    2.09830666   0.69396505  -2.60798816
H    1.48336360  -1.18734857  -2.26535069
H    0.94646431   1.17689411  -0.37541674
H    1.66430262  -0.35225883   0.16730961
H   -0.34943242  -1.56176704  -0.81422777
C   -1.59891422   0.25614797  -0.87235406
H   -2.24240108  -0.22712876  -1.61139350
H   -1.38784686   1.28227367  -1.18676241
O   -2.17296379   0.21313300   0.43736303
H   -0.08477556   1.27819680   1.73777544
H   -1.07576707   0.38977255   2.91675752
