19
Energy: 4.067
O    0.81683564  -1.29843628  -1.44431797
H   -0.10533294  -1.38720714  -1.73031110
C    1.16227405   0.04516821  -1.63125732
C    0.03921441   0.99717410  -1.19451245
H    0.13575723   1.93459309  -1.75614608
C   -0.28342572   1.23541443   0.30004984
C    0.57463578   0.64363225   1.41708834
C    0.44049601  -0.84926094   1.59495528
O    0.10945299  -1.36604532   2.62640217
H    0.68740365  -1.44743222   0.70338690
H    1.62658676   0.86131408   1.21365663
H    0.30047402   1.12141149   2.36051945
H   -0.40186410   2.30293983   0.49546338
C   -1.61786720   0.55210696  -0.02925715
H   -2.51275996   1.16861854   0.08287058
H   -1.77676869  -0.41613803   0.45363048
O   -1.25129787   0.40441958  -1.40370707
H    1.37561767   0.23097711  -2.69430127
H    2.07237201   0.23450458  -1.05752400
