19
Energy: 3.644
O   -2.50002904  -0.37544842  -0.84574062
H   -3.15875761  -0.35289818  -0.14257010
C   -1.54661517  -1.36528529  -0.55559364
C   -0.76375608  -1.06732481   0.72467207
H   -1.46524472  -1.00666374   1.56917895
C    0.27846278   0.07213857   0.70412896
C    0.41387671   0.89885067  -0.56782534
C    1.49350863   1.93336277  -0.42653604
O    1.42223899   3.06879609  -0.79829883
H    2.40990994   1.54708004   0.06503641
H    0.70032599   0.25525368  -1.40428373
H   -0.53452149   1.37653951  -0.81981072
H    0.17704756   0.73794964   1.56298431
C    1.29556287  -1.05554580   0.93026843
H    1.85629490  -1.01868014   1.86750354
H    1.98224371  -1.24047533   0.09893321
O    0.25653915  -2.03718975   0.97755330
H   -0.87478666  -1.40207204  -1.41430522
H   -2.01109287  -2.35477655  -0.44496888
