19
Energy: 1.739
O    0.35510061   1.59978930  -1.64154404
H    1.14371638   1.90417873  -1.17007641
C    0.63257303   0.29612770  -2.07910717
C    1.16211275  -0.58040786  -0.93964090
H    1.59758635  -1.49681147  -1.35320130
C    0.25962537  -0.80314510   0.29386903
C   -1.15806198  -0.24964054   0.24469279
C   -1.80954823  -0.25014622   1.59564037
O   -2.95572535  -0.52301232   1.81044385
H   -1.12865440   0.04565148   2.41903788
H   -1.13149453   0.78850147  -0.10368641
H   -1.77231786  -0.82226733  -0.45275204
H    0.23922114  -1.84780392   0.60866924
C    1.31748188   0.02525690   1.03582441
H    1.85653888  -0.48869599   1.83511190
H    0.98179221   1.00494705   1.38885436
O    2.11608628   0.14079345  -0.14479391
H    1.38466844   0.31503826  -2.88058803
H   -0.29608679  -0.11685016  -2.47679066
