19
Energy: 4.21
O   -0.53664708  -2.08262760   1.20550680
H   -1.19151121  -2.70731696   0.87388810
C   -1.04410438  -0.77710533   1.08004628
C   -1.24807751  -0.35934988  -0.37704824
H   -1.96990738  -1.03913120  -0.85255278
C    0.00647124  -0.07366129  -1.22729846
C    1.38464049  -0.47345589  -0.69340041
C    1.79810626   0.18892735   0.59537305
O    1.90564964   1.37387439   0.75729215
H    2.04757974  -0.51921383   1.40750258
H    1.41071418  -1.55623998  -0.57270534
H    2.12163902  -0.17916622  -1.44649799
H   -0.09826492  -0.48538545  -2.23354072
C   -0.45701169   1.38707861  -1.15158047
H   -0.65963753   1.87764987  -2.10619806
H    0.15654736   2.03420253  -0.52163411
O   -1.66777717   1.00080153  -0.48688883
H   -0.31683408  -0.11598256   1.55590961
H   -2.00128439  -0.66353605   1.60664966
