19
Energy: 1.683
O    0.96032918   1.17019244  -1.38001403
H    1.43110772   0.46727543  -1.84359765
C    1.29048124   1.12601502  -0.01369135
C    0.97375376  -0.22272762   0.64072396
H    1.67418307  -0.98493579   0.27722447
C   -0.50197787  -0.67031760   0.66223007
C   -1.49778904   0.13512874  -0.15613954
C   -1.29211046  -0.09356968  -1.63141265
O   -0.77109824  -1.06089826  -2.11283365
H   -1.71450503   0.70527305  -2.26786823
H   -2.51564640  -0.18860316   0.08418076
H   -1.43217995   1.20167092   0.05563558
H   -0.60848320  -1.72793191   0.41830758
C   -0.40728865  -0.40661687   2.16901429
H   -0.60903100  -1.25526647   2.82616685
H   -0.96269747   0.46946654   2.51868866
O    0.99335872  -0.13298076   2.06966701
H    0.70982753   1.91613880   0.46744835
H    2.35486879   1.34698655   0.14558781
