19
Energy: 4.049
O   -0.78332858   1.53930912   0.23139079
H   -0.21913412   1.91807718  -0.45984498
C   -1.57156136   0.56436914  -0.39128811
C   -0.71810233  -0.35446337  -1.26851135
H   -1.36323957  -0.90794769  -1.96047947
C    0.36770270  -1.22106005  -0.59638154
C    0.45523425  -1.26779782   0.92497444
C    0.62228524   0.02944942   1.68285638
O    0.08032803   0.25570969   2.72622958
H    1.38762798   0.71158653   1.27328964
H   -0.42098978  -1.78740867   1.31973850
H    1.33875965  -1.86186718   1.18665541
H    0.33780183  -2.25042008  -0.96044595
C    1.35238615  -0.35365385  -1.39192022
H    1.93108156  -0.88300452  -2.15354990
H    2.02126895   0.28178926  -0.80695749
O    0.28327381   0.39527070  -1.97604762
H   -2.33885139   1.03830650  -1.02077876
H   -2.06468676  -0.00631352   0.39764389
