19
Energy: 0.535
O    2.14828319   0.92196345  -0.42340847
H    2.40483899  -0.01200683  -0.41556173
C    1.27216056   1.07572719  -1.50883542
C    0.19274568  -0.01118538  -1.51759221
H   -0.31199958  -0.01856357  -2.49061740
C   -0.76099809  -0.11178661  -0.30946433
C   -0.62135523   0.91880366   0.79986806
C   -1.34902301   0.50809763   2.04482099
O   -1.95065905  -0.51643624   2.20096461
H   -1.28090813   1.26189460   2.85503166
H    0.43162462   1.07132795   1.05630390
H   -1.01389630   1.88789795   0.48014298
H   -1.80897725  -0.20519639  -0.59599060
C   -0.08157811  -1.46513547  -0.06779702
H   -0.72420825  -2.34147921  -0.16618380
H    0.49791387  -1.53974250   0.85602841
O    0.76140973  -1.29305517  -1.21298000
H    1.82833051   1.02129533  -2.45567073
H    0.81808138   2.06497244  -1.42404006
