19
Energy: 1.873
O   -1.95909135  -1.11763127   0.42075908
H   -1.42352212  -1.91892789   0.33041570
C   -1.50013922  -0.45738948   1.56748380
C    0.02695305  -0.33953641   1.58528488
H    0.35953629  -0.05773831   2.59127828
C    0.72644016   0.44138393   0.45115764
C   -0.14647147   1.12430423  -0.59339605
C    0.69493542   1.65604714  -1.71804949
O    0.48351305   1.49105206  -2.88429733
H    1.57061225   2.24411571  -1.37318409
H   -0.90507159   0.44350782  -0.98202912
H   -0.64953862   1.97966447  -0.13258457
H    1.47762047   1.13974680   0.82565150
C    1.30821367  -0.92457585   0.06577355
H    2.39341325  -1.02294932   0.14625595
H    0.97495979  -1.31493022  -0.89982576
O    0.64064831  -1.56433418   1.15699377
H   -1.81357967  -0.99996557   2.47144664
H   -1.95765218   0.53396055   1.57653592
