19
Energy: 3.881
O    0.63160830   1.87467743   2.01005034
H   -0.24047007   1.72425363   2.39523539
C    0.71734671   1.11829057   0.83259151
C    0.39976978  -0.34809233   1.10454524
H    1.01152394  -0.68262779   1.95340256
C    0.36660976  -1.37114673  -0.04876589
C    0.50485408  -0.85663200  -1.47795770
C   -0.40072020   0.27746583  -1.87685115
O   -0.10320208   1.13081880  -2.66456496
H   -1.41104628   0.24585394  -1.42896793
H    1.53883611  -0.56649655  -1.67668310
H    0.25970902  -1.68197918  -2.15649532
H    1.06611633  -2.19749098   0.08802245
C   -1.05156114  -1.66632161   0.46035421
H   -1.15193375  -2.62278036   0.98304484
H   -1.87052655  -1.56062766  -0.25420809
O   -0.99289212  -0.57804410   1.38164015
H    1.74547125   1.21472890   0.47559007
H    0.03456801   1.51437527   0.06802537
