19
Energy: 2.879
O   -0.12087794  -2.05840648  -2.59269231
H   -0.16180808  -2.82316988  -2.00515973
C    0.15968417  -0.93074471  -1.80729899
C   -0.84176654  -0.80553115  -0.65933788
H   -1.85480340  -0.91553556  -1.06575304
C   -0.67931643   0.34445068   0.35568296
C    0.40852701   1.38408162   0.11856362
C    0.46868116   2.35562881   1.26528129
O    1.45861329   2.65637124   1.86571698
H   -0.51637613   2.79278996   1.52444104
H    1.38612939   0.91978627  -0.01157140
H    0.16661283   1.95560311  -0.78179105
H   -1.62616281   0.84566824   0.56603299
C   -0.35875967  -0.77654020   1.35300132
H   -1.03734097  -0.87559042   2.20352976
H    0.67597844  -0.79556913   1.70736532
O   -0.59747279  -1.78063120   0.36648324
H    0.08280183  -0.06641679  -2.47092930
H    1.17936263  -0.98941628  -1.40238288
