19
Energy: 1.572
O    0.81441666   2.22517912  -0.19820474
H    0.99870979   1.85523609   0.67940294
C    0.41160257   1.19020490  -1.05019987
C   -0.84915865   0.48532806  -0.55114428
H   -1.51334592   1.25592297  -0.13536274
C   -0.78520019  -0.76522384   0.35807736
C    0.55020308  -1.47733935   0.52578100
C    1.53345074  -0.74075747   1.38391151
O    1.37632266   0.35367470   1.85101421
H    2.46624221  -1.30790859   1.56771553
H    0.38126867  -2.45933411   0.97918212
H    1.02091482  -1.66080978  -0.44444640
H   -1.24591751  -0.62037858   1.33592966
C   -1.69299667  -1.38922243  -0.70923078
H   -2.73709208  -1.51575773  -0.40723445
H   -1.33233042  -2.31109018  -1.17332309
O   -1.53026582  -0.26225158  -1.56860923
H    1.22826057   0.47444624  -1.21993988
H    0.16494156   1.65582370  -2.00841670
