19
Energy: 3.149
O    1.55167542   1.00987843   0.74676888
H    1.67005722   1.38144112   1.62785328
C    1.31870724  -0.37680196   0.84683514
C    0.88169689  -0.84905757  -0.53493587
H    1.69449243  -0.64750536  -1.24282242
C   -0.50039281  -0.39126264  -1.04497496
C   -1.37692834   0.41377306  -0.09672611
C   -0.83291157   1.78623965   0.20594042
O   -0.98064473   2.35466010   1.25182856
H   -0.33295002   2.27088586  -0.65123079
H   -2.35072147   0.56699212  -0.57462186
H   -1.55373363  -0.12026882   0.83858799
H   -0.45537349   0.10035033  -2.01727699
C   -0.80209223  -1.89537170  -1.11219740
H   -0.93346960  -2.30549469  -2.11716160
H   -1.61045527  -2.24649445  -0.46498569
O    0.48284269  -2.22057656  -0.57669845
H    0.54339752  -0.60405422   1.58733416
H    2.23354660  -0.91444666   1.13147094
