19
Energy: 2.439
O   -0.02868779  -1.70528738   0.49887611
H    0.14388891  -1.75335119  -0.45369228
C    1.08339858  -1.08694293   1.08735123
C    1.45173913   0.20951263   0.36798641
H    2.40161465   0.58806403   0.76622214
C    0.36637192   1.29224421   0.20289694
C   -1.00242826   1.04921661   0.84314731
C   -1.80567159  -0.12254051   0.31532564
O   -2.09072932  -0.28833400  -0.84083071
H   -2.24277655  -0.75770934   1.10434268
H   -0.87471235   0.95445529   1.92189448
H   -1.61767503   1.93378389   0.64933878
H    0.72047281   2.27698393   0.51464947
C    0.54100692   1.03321562  -1.29979428
H    0.96795344   1.86442747  -1.86678944
H   -0.33308217   0.63564234  -1.81706753
O    1.52051433   0.01579646  -1.04922988
H    1.95241412  -1.75943941   1.05776032
H    0.82863233  -0.88589838   2.13015907
