19
Energy: 2.193
O    2.45716833   0.78190439   0.77792967
H    3.12381604   0.45020535   0.16604056
C    1.71338097  -0.30371983   1.27798588
C    0.93361480  -1.02855042   0.17887049
H    1.64056101  -1.43597495  -0.55822767
C   -0.27315776  -0.30204044  -0.44781781
C   -0.57298139   1.11749628   0.00813205
C   -1.56810743   1.80738497  -0.87806521
O   -2.02484331   1.37114072  -1.89586042
H   -1.85646367   2.81074800  -0.50561878
H   -0.95329948   1.14208507   1.03196466
H    0.34549764   1.71340479  -0.00201149
H   -0.27031977  -0.32939032  -1.53836547
C   -1.09418955  -1.43586835   0.18009931
H   -1.62089379  -2.08856615  -0.51916867
H   -1.77443642  -1.13494463   0.98227870
O    0.08706412  -2.05683733   0.69824925
H    1.02756309   0.11122155   2.01808609
H    2.35885634  -1.03449708   1.78312797
