19
Energy: 1.847
O   -0.74033445   1.33404522  -1.40907202
H   -0.85308125   2.10787028  -0.83827860
C    0.59853580   0.93909515  -1.28388798
C    1.02270343   0.84797399   0.18563020
H    2.11612184   0.82192413   0.25282298
C    0.30383322  -0.17732272   1.08947889
C   -0.70451531  -1.11283003   0.44246756
C   -0.04864940  -2.26171400  -0.26948626
O   -0.49673284  -2.83828777  -1.21781811
H    0.92145918  -2.56657320   0.17652736
H   -1.33289456  -1.54730259   1.22742315
H   -1.35695194  -0.57998368  -0.25217827
H    0.99964724  -0.74654272   1.70928703
C   -0.25713055   1.06038205   1.80118837
H    0.03172353   1.18415067   2.84765016
H   -1.33642475   1.20517679   1.69763365
O    0.47823757   1.93859659   0.94609136
H    1.25733476   1.65644019  -1.79424248
H    0.69745694  -0.03567843  -1.76693384
