19
Energy: 2.396
O    1.10318437   1.72652855   1.03760259
H    1.28644275   0.88519710   1.48684359
C    0.71518504   1.48745124  -0.28366590
C   -0.68680482   0.87846511  -0.41123148
H   -1.35891821   1.43186876   0.25592303
C   -0.89367322  -0.65509095  -0.36948643
C    0.27805235  -1.58499002  -0.04434983
C    0.44182900  -1.63394848   1.44552238
O    1.19026794  -0.93835552   2.07583968
H   -0.22833835  -2.35084569   1.95445580
H    0.04244061  -2.57963997  -0.42633172
H    1.19240392  -1.22091456  -0.51387874
H   -1.75545309  -0.93059320   0.24264030
C   -1.25435830  -0.50014336  -1.85155527
H   -2.25813398  -0.82088055  -2.14078074
H   -0.52080506  -0.91782891  -2.54873787
O   -1.14963516   0.91872429  -1.76921885
H    1.45136432   0.87586264  -0.82269309
H    0.67290654   2.46459541  -0.77438037
