19
Energy: 1.746
O   -1.15957587  -1.64225873  -0.82454900
H   -0.93019683  -1.50110434  -1.75433124
C    0.04965910  -1.84876348  -0.14341614
C    1.07550343  -0.75951817  -0.47179386
H    2.06468178  -1.06960731  -0.11572012
C    0.72463516   0.71411027  -0.16437911
C   -0.59534836   1.02288440   0.52741685
C   -0.52249914   0.88486676   2.01894392
O   -1.17692033   1.51098838   2.80264316
H    0.20534035   0.12213387   2.36394349
H   -0.92709368   2.03329088   0.27676284
H   -1.36619103   0.32639783   0.17862461
H    1.54024295   1.24258510   0.33209207
C    0.74435543   0.88399746  -1.68937629
H    1.51281894   1.55145905  -2.08619817
H   -0.22147109   1.12505638  -2.14279864
O    1.09086220  -0.48926968  -1.88234709
H    0.48021464  -2.82202837  -0.41873300
H   -0.17808112  -1.85403146   0.92416210
