19
Energy: 2.323
O   -1.79298360  -2.56877955  -1.10373027
H   -2.33581791  -1.94475052  -1.60170724
C   -0.99146379  -1.82512800  -0.22488820
C   -0.25175602  -0.71582584  -0.97171466
H    0.24514742  -1.15378389  -1.84622497
C    0.61396610   0.27812171  -0.17456655
C    0.77984123   0.07609858   1.32278110
C    1.55579408   1.19979683   1.95449764
O    2.01736601   2.14093177   1.37735847
H    1.67394648   1.08209390   3.05030464
H   -0.18573569   0.01303133   1.82993750
H    1.31410865  -0.85518681   1.52993030
H    1.59469231   0.44127146  -0.62267949
C   -0.42432835   1.31607512  -0.61890844
H   -0.05214576   2.12249636  -1.25328554
H   -1.03464925   1.73778120   0.18516356
O   -1.14482944   0.33642747  -1.36958715
H   -0.27876863  -2.52769795   0.21344611
H   -1.60764942  -1.38634303   0.57297429
