19
Energy: 3.246
O   -3.30547707   0.17641413  -0.05510772
H   -3.29178352   1.14152147  -0.07139500
C   -2.00166755  -0.26507645   0.21274905
C   -1.00531912   0.36801162  -0.75771133
H   -1.38020955   0.23573275  -1.77980853
C    0.50060669   0.08075604  -0.58572820
C    0.93428973  -0.92069162   0.47699775
C    2.43233108  -0.94748339   0.61529133
O    3.09905559  -1.93577266   0.71498667
H    2.89190642   0.06077732   0.62575165
H    0.52946157  -0.63392425   1.45122261
H    0.57461612  -1.92254821   0.23706480
H    0.98280380  -0.16403921  -1.53350764
C    0.59456971   1.57140726  -0.23074551
H    1.20394339   2.18860596  -0.89539846
H    0.85480748   1.78738044   0.81023108
O   -0.79973596   1.76076093  -0.46918138
H   -2.01077608  -1.35029097   0.08994250
H   -1.71980261  -0.01796012   1.24615042
