20
Energy: 0.764
N   -3.33827884   0.06221360  -0.09821646
C   -2.53216480  -0.69537181   0.18805151
C   -1.48476275  -1.63277033   0.56046773
O   -0.19197825  -1.11114550   0.39659951
C    0.10866851  -0.03658521   1.26713787
C    1.48719714   0.50793526   0.90315557
C    1.46619422   1.25511752  -0.40954575
C    1.54370077   0.49733430  -1.69946384
C    2.70654223   1.32673217  -1.24827582
H    2.92054925   2.24488792  -1.77378290
H    3.58896496   0.81617428  -0.89331862
H    0.95597954   0.84376965  -2.53552866
H    1.62989092  -0.57619504  -1.64341870
H    0.83197579   2.13394179  -0.39417116
H    1.81924855   1.17187670   1.70491433
H    2.18023955  -0.33188102   0.83791305
H    0.10063071  -0.39536127   2.30962017
H   -0.64789828   0.75550351   1.17106362
H   -1.66228499  -1.94682033   1.60501414
H   -1.54857468  -2.50922441  -0.09380268
