20
Energy: 1.917
N   -3.77485416  -1.69993306   1.51620054
C   -2.72609775  -1.40889170   1.17164548
C   -1.38487014  -1.05705744   0.74961023
O   -1.44690208   0.00626337  -0.17280865
C   -0.23990604   0.25971692  -0.85570240
C    0.86390036   0.86421394   0.02014452
C    2.03749593   1.29716407  -0.82546157
C    3.07642335   0.29359762  -1.22730619
C    3.41055868   1.35965276  -0.22837735
H    4.06768224   2.16049070  -0.52991919
H    3.53018998   1.06901371   0.80431271
H    3.50598417   0.35928086  -2.21486846
H    2.97177055  -0.71946360  -0.86893454
H    1.78609644   2.05844981  -1.55414561
H    0.45193587   1.72297538   0.55682776
H    1.20240700   0.13143182   0.75620702
H   -0.51780936   0.97045781  -1.63786170
H    0.12815597  -0.66072992  -1.33459131
H   -0.80789398  -0.78492222   1.64939442
H   -0.92279794  -1.94961186   0.29220843
