20
Energy: 0.217
N    1.76635522   1.42972098   1.30373180
C    0.84420832   0.86286906   1.67185055
C   -0.32384411   0.15092912   2.16324926
O   -1.19637085  -0.32884592   1.17271399
C   -0.77871560  -1.49540943   0.49456862
C    0.21888917  -1.25383470  -0.64322024
C   -0.39513161  -0.45928180  -1.77217561
C    0.48671728   0.27783572  -2.73455654
C   -0.35885329   1.03842749  -1.75954595
H   -1.21880807   1.57501421  -2.12996351
H    0.13858758   1.53055175  -0.93863619
H    0.21335058   0.29087437  -3.77860484
H    1.55234064   0.25271319  -2.56490961
H   -1.28605880  -0.92136901  -2.18229020
H    1.09814029  -0.73222106  -0.26130374
H    0.54083389  -2.23113983  -1.01426931
H   -1.70168158  -1.91661727   0.08533083
H   -0.35574821  -2.21339747   1.21429464
H    0.03019860  -0.66869730   2.81392051
H   -0.91160207   0.85421281   2.76638873
