20
Energy: 0.066
N    2.51784765  -0.56954627   1.77906600
C    2.30131844  -0.87107801   0.69808043
C    2.03905036  -1.24897108  -0.68104280
O    1.30109518  -0.29723045  -1.40875889
C   -0.09670777  -0.32772609  -1.21167283
C   -0.55703231   0.17204330   0.16084867
C   -2.06011963   0.31214230   0.20137294
C   -2.70491520   1.55587110  -0.33189209
C   -2.69324853   1.29044053   1.14290396
H   -3.61925276   1.01718905   1.62501255
H   -2.04279679   1.88912791   1.76171784
H   -3.63978928   1.46776391  -0.86390721
H   -2.06269813   2.33652307  -0.71003129
H   -2.58678791  -0.62112380   0.03755280
H   -0.23181199  -0.52280934   0.94012203
H   -0.08734664   1.13782779   0.35660542
H   -0.47761535  -1.34669235  -1.38516668
H   -0.49260160   0.32855644  -1.99092561
H    3.00543055  -1.34065356  -1.19243734
H    1.53764602  -2.23181118  -0.68439638
