20
Energy: 1.097
N   -0.85658533  -2.57850515  -0.53827746
C   -0.55796985  -1.67523983  -1.17183166
C   -0.20471063  -0.52456729  -1.98662279
O   -0.96257040   0.62457212  -1.69238535
C   -0.46763197   1.45857309  -0.66627540
C   -0.57901325   0.89299378   0.76002401
C    0.66834385   0.17414493   1.22278979
C    1.09591157   0.28110294   2.65541947
C    1.88389053   0.97450093   1.58631312
H    2.85822824   0.58600451   1.33065099
H    1.81799063   2.05096032   1.52920427
H    1.52398485  -0.58810758   3.12986303
H    0.49992137   0.88791326   3.31982581
H    0.83920740  -0.78376517   0.74778321
H   -0.77367148   1.72609731   1.43761356
H   -1.43789792   0.21919703   0.80212560
H   -1.08553537   2.35535133  -0.75643071
H    0.57848824   1.72987737  -0.87567774
H    0.87540898  -0.33161202  -1.88628613
H   -0.42535114  -0.77971905  -3.03162958
