20
Energy: 2.045
N    1.20949796  -2.56455639   1.63822871
C    0.91783982  -1.49938900   1.93271527
C    0.54165403  -0.14948816   2.31962369
O   -0.59774379   0.34573961   1.65925412
C   -0.37922937   0.85739203   0.35995336
C   -0.07644464  -0.22172245  -0.68136552
C   -0.14500744   0.24375343  -2.12270688
C    0.00623207   1.67616549  -2.53749817
C   -1.32260944   0.99389672  -2.66743016
H   -1.67732383   0.74111719  -3.65493523
H   -2.11210930   1.28033026  -1.99041455
H    0.56332908   1.88891477  -3.43748170
H    0.11448538   2.43393391  -1.77832125
H    0.29195109  -0.48768730  -2.79341863
H    0.92247766  -0.62780391  -0.49742701
H   -0.79099852  -1.03843612  -0.54031662
H    0.43431435   1.59820718   0.38904730
H   -1.31522122   1.36696447   0.12189410
H    0.29046100  -0.16543210   3.38754007
H    1.41166318   0.51176894   2.16660444
