20
Energy: 1.333
N   -2.44182918  -0.18488045  -2.37640046
C   -2.14110157   0.12531648  -1.31839063
C   -1.72262662   0.49030283   0.02519995
O   -1.31351569  -0.61798769   0.78982318
C   -0.15038155  -1.28612541   0.32569793
C    1.11761830  -0.88553788   1.09139363
C    1.51935476   0.55673424   0.88116223
C    2.08707716   0.98784233  -0.43854467
C    2.96920476   0.92172430   0.77084250
H    3.30333336   1.84653221   1.21566010
H    3.69863998   0.12798603   0.82332113
H    1.82142911   1.95831234  -0.83116176
H    2.22079065   0.23638709  -1.20236681
H    0.88721534   1.26604865   1.40310090
H    0.94882729  -1.06385165   2.15546323
H    1.92288012  -1.54265614   0.75753717
H   -0.01514058  -1.11701233  -0.74891161
H   -0.33867779  -2.35294140   0.48442530
H   -0.93028628   1.25003580  -0.06302228
H   -2.57822653   0.92296055   0.55579894
