20
Energy: 0.758
N    1.84448660  -1.27049963   2.09233184
C    1.33759996  -0.30220603   1.75752202
C    0.68433035   0.91100667   1.30095640
O    1.18314136   1.39697624   0.07459757
C    1.14830978   0.49413925  -1.01375603
C   -0.23664620   0.28242290  -1.64023176
C   -1.12771206  -0.67785405  -0.87966938
C   -2.51689843  -0.93516715  -1.38247429
C   -2.31226348  -0.18443952  -0.10188980
H   -2.56811112  -0.67612324   0.82573798
H   -2.52177952   0.87596527  -0.10461464
H   -2.90795764  -1.93955885  -1.33404458
H   -2.85113979  -0.37973956  -2.24557073
H   -0.59596110  -1.53098793  -0.47191775
H   -0.72886202   1.25197582  -1.74142207
H   -0.07183436  -0.11523230  -2.64564973
H    1.57910466  -0.47395009  -0.72292533
H    1.80674081   0.95778279  -1.75308582
H   -0.39752569   0.71442364   1.25291683
H    0.87146698   1.70678600   2.03104892
