20
Energy: 0.971
N   -3.43016171   0.18007461  -1.36794734
C   -2.43315736   0.61662742  -1.01941134
C   -1.15476168   1.13781163  -0.56526896
O   -0.79609648   0.69463020   0.72122266
C   -0.62423635  -0.70285408   0.85700052
C    0.66207216  -1.24827574   0.22424497
C    1.89550306  -0.58479158   0.79171533
C    2.50869592   0.60167894   0.11257577
C    3.21113966  -0.72169409   0.08618345
H    4.10489945  -0.84460736   0.67804509
H    3.23207894  -1.26665466  -0.84575945
H    2.91570204   1.39208456   0.72385635
H    2.06663487   0.95608044  -0.80656995
H    1.91959289  -0.58909755   1.87481369
H    0.69311838  -2.32231483   0.42580479
H    0.63633326  -1.11943022  -0.86019812
H   -1.49422736  -1.23559958   0.44754996
H   -0.59466193  -0.86304701   1.93775203
H   -0.39552695   0.87741080  -1.32069593
H   -1.22311374   2.22915501  -0.49701933
