20
Energy: 0.44
N   -0.66161996  -0.79013323  -3.83791864
C    0.09940820  -0.71990928  -2.98841851
C    1.04069241  -0.62291121  -1.88433289
O    0.60617434   0.22958260  -0.85679582
C   -0.54887099  -0.22968852  -0.17859153
C   -0.84945398   0.73498538   0.96487354
C    0.21725601   0.67326713   2.03255377
C    0.13307399  -0.36874651   3.10662941
C   -0.10795725   1.07308454   3.43860977
H    0.63814185   1.60171079   4.01160649
H   -1.11937455   1.38045743   3.65711815
H    1.04402544  -0.83154355   3.45454032
H   -0.71681867  -1.03503142   3.10354920
H    1.20271475   0.92246121   1.66056557
H   -0.90488173   1.74555214   0.55513232
H   -1.82075110   0.47820384   1.39023644
H   -0.36941926  -1.24148916   0.21791071
H   -1.40042993  -0.27630008  -0.87336100
H    1.22805854  -1.64376770  -1.50525804
H    1.97970279  -0.20030681  -2.25850197
