20
Energy: 1.302
N   -1.46348480   1.71994409  -1.68622772
C   -0.45703159   1.18333404  -1.75718166
C    0.81776763   0.49022675  -1.81986694
O    0.71645280  -0.90828945  -1.69335231
C    0.04046440  -1.38599418  -0.54440835
C    0.75713496  -1.10386800   0.78829152
C    0.22847691   0.12041297   1.50166549
C    0.23009385   0.16620361   3.00027281
C   -1.06275227   0.02202931   2.25737777
H   -1.74037642   0.86106938   2.23025645
H   -1.55916604  -0.93608394   2.28705263
H    0.44352553   1.10550086   3.48688053
H    0.60743443  -0.69301949   3.53387244
H    0.41123407   1.06119328   0.99660118
H    0.61974106  -1.96876649   1.43902871
H    1.82915387  -1.00573229   0.59573736
H   -0.01314112  -2.46263849  -0.72037439
H   -0.98159784  -0.98441125  -0.50747543
H    1.26422937   0.66635348  -2.80550555
H    1.48014402   0.92246230  -1.05139217
