20
Energy: 0.451
N    0.56006548   0.00780467   3.76077811
C   -0.09893140  -0.24134613   2.86096446
C   -0.91245036  -0.54345284   1.69553444
O   -0.97619480   0.51309435   0.76676193
C    0.26324913   0.91885332   0.21500954
C    0.86544407  -0.08240558  -0.77759989
C   -0.06849582  -0.33483144  -1.93805321
C    0.46979926  -0.86991704  -3.22932848
C   -0.00639503   0.54886179  -3.14639422
H   -0.92765043   0.81269143  -3.64232165
H    0.73522535   1.33322933  -3.16473490
H   -0.12368197  -1.58194138  -3.78215454
H    1.53280216  -1.04451467  -3.30097937
H   -1.05064354  -0.67509849  -1.63279198
H    1.80815958   0.33042944  -1.13984543
H    1.09369824  -1.02349531  -0.26836877
H    0.98412012   1.13140529   1.01695884
H    0.02801172   1.85040231  -0.30518613
H   -0.52695287  -1.47119782   1.24131428
H   -1.94420815  -0.71461163   2.02256392
