20
Energy: 1.992
N   -0.22910019   0.62045829   4.42259611
C    0.24105428   0.62815455   3.38229963
C    0.85758870   0.64343512   2.07138395
O   -0.09617435   0.31051733   1.09378286
C    0.43184971   0.30462448  -0.21402860
C   -0.68906993  -0.06194657  -1.18195935
C   -0.19020329  -0.10799094  -2.60587894
C   -0.88704777  -0.97084652  -3.61321096
C    0.47713884  -1.34788623  -3.12114700
H    1.31451595  -1.24507006  -3.79422891
H    0.55738415  -2.19394605  -2.45574904
H   -0.98770388  -0.60547802  -4.62355884
H   -1.72746816  -1.55987093  -3.27982926
H    0.19932651   0.83948954  -2.95990589
H   -1.09236339  -1.03289787  -0.89187384
H   -1.48863497   0.67521199  -1.08240543
H    1.25193374  -0.42713029  -0.28965429
H    0.84023070   1.29770282  -0.46202578
H    1.27295813   1.65218586   1.89467040
H    1.69461469  -0.07819413   2.07270733
