20
Energy: 1.828
N   -4.15399884   0.28692102   1.52991610
C   -3.14689427   0.46896324   1.02395506
C   -1.87206514   0.72473654   0.38381530
O   -1.22600455  -0.49915886   0.11906641
C   -0.09913429  -0.39599303  -0.72169640
C    1.10868601   0.28954898  -0.07199718
C    2.33574230   0.14212843  -0.93985484
C    3.14699111  -1.11626311  -0.87152762
C    3.69913580   0.16236791  -0.31842758
H    4.50138140   0.65049241  -0.85011055
H    3.76640781   0.26407765   0.75399586
H    3.57124422  -1.50904987  -1.78260335
H    2.84023842  -1.87888715  -0.17217219
H    2.23450064   0.60691656  -1.91382980
H    0.90012284   1.35215431   0.08305459
H    1.28592849  -0.16992828   0.90246644
H   -0.36742219   0.12368207  -1.65482458
H    0.15598654  -1.43113655  -0.96110002
H   -2.06122892   1.28119180  -0.55104634
H   -1.27728720   1.36385346   1.05777400
