20
Energy: 0.783
N   -0.92156441   0.38658605   3.78645073
C   -0.17832478   0.07191495   2.97748623
C    0.74030232  -0.32498341   1.92247826
O    0.38931506   0.18026604   0.66104814
C   -0.82824651  -0.33104408   0.15280489
C   -1.00947806   0.18252120  -1.27329189
C   -0.04108929  -0.46342694  -2.23628288
C    1.36275663   0.04994265  -2.33886524
C    0.39869623   0.27904759  -3.46203599
H    0.53367184  -0.27438802  -4.37889469
H    0.02003899   1.27852845  -3.61211443
H    2.16251907  -0.66031969  -2.48380168
H    1.63298472   0.88967317  -1.71863101
H   -0.18164268  -1.53383634  -2.33655891
H   -2.03641831  -0.02135269  -1.58542761
H   -0.85699179   1.26227318  -1.26684227
H   -1.66717238  -0.00356864   0.78497721
H   -0.80308909  -1.43230691   0.16021552
H    1.73342652   0.07788747   2.14994878
H    0.79115781  -1.42871575   1.91215372
