20
Energy: 0.764
N   -3.21254009   0.04621573  -0.85248048
C   -2.31482275   0.74056925  -0.98561508
C   -1.15740764   1.61001618  -1.12340866
O    0.00701672   1.07252889  -0.55275924
C   -0.04620902   0.95264593   0.85645153
C    1.21489515   0.23337093   1.32717878
C    1.19234301  -1.23243597   0.96273512
C    2.48006513  -1.96989606   0.75083805
C    1.59108543  -1.66394791  -0.41528100
H    1.04863555  -2.47418797  -0.87757792
H    1.90269385  -0.89811548  -1.10770927
H    2.55056506  -2.99139813   1.09220383
H    3.40259584  -1.41754033   0.84663718
H    0.38422049  -1.78020467   1.43361252
H    2.07650998   0.71528946   0.86326555
H    1.29401062   0.34712255   2.41101552
H   -0.93886390   0.38581063   1.15783409
H   -0.10733545   1.95655986   1.30804855
H   -0.94416053   1.74550542  -2.18942298
H   -1.40915439   2.58916329  -0.67719915
