20
Energy: 0.0
N   -0.90418518   1.09383301  -2.39729810
C   -0.05650849   0.34922037  -2.21441553
C    1.01305464  -0.61051957  -1.99336032
O    0.93188248  -1.29547686  -0.76714245
C    1.45460298  -0.61226147   0.35253418
C    0.61430081   0.57638174   0.82958506
C   -0.77475441   0.14223527   1.23337787
C   -1.55773951   0.96144055   2.21205899
C   -1.01669044  -0.37604248   2.61833659
H   -1.70864936  -1.19319058   2.75168196
H   -0.18435424  -0.39723439   3.30617598
H   -2.62111038   1.06480000   2.06246187
H   -1.09050022   1.84394854   2.62234419
H   -1.32790418  -0.32514901   0.42830075
H    1.12571706   1.03009018   1.68073873
H    0.54933302   1.32665121   0.03655250
H    2.48211599  -0.27814617   0.13642677
H    1.48800462  -1.37442659   1.13514674
H    0.93925216  -1.37684095  -2.77541664
H    1.97867588  -0.08667486  -2.09655274
