20
Energy: 0.434
N    3.57819213   0.52292280  -0.04568520
C    2.63759448   1.04720242   0.33679446
C    1.42222764   1.68705071   0.81054405
O    0.54142878   0.80546615   1.46688400
C    0.08251891  -0.28830090   0.69373557
C   -0.90027603   0.10110296  -0.41653896
C   -1.52912016  -1.13043729  -1.02315965
C   -2.88512479  -1.04533756  -1.65507159
C   -2.70872459  -1.76890435  -0.35451411
H   -2.78137503  -2.84544097  -0.34994229
H   -3.09715646  -1.30454941   0.53907239
H   -3.07666497  -1.62407276  -2.54548767
H   -3.39300204  -0.09294851  -1.64103460
H   -0.81096675  -1.79449478  -1.48963334
H   -1.67446638   0.74224923   0.01047674
H   -0.38126661   0.66219465  -1.19909347
H   -0.42330312  -0.93315817   1.41642409
H    0.93215964  -0.83951942   0.26741426
H    1.69162706   2.44605327   1.55358722
H    0.94213061   2.18599221  -0.04740029
