20
Energy: 1.828
N    2.15142869  -3.46610954   1.74582439
C    1.85037415  -2.44720286   1.32793445
C    1.48637142  -1.14247296   0.81253488
O    0.38329603  -1.27118436  -0.05467459
C    0.09738802  -0.11761867  -0.81288770
C   -0.47267626   1.04688364   0.00554648
C   -0.97234608   2.14346438  -0.90462935
C   -2.06920755   3.05561089  -0.44605410
C   -2.33786178   2.03874499  -1.51351639
H   -2.48068889   2.38106882  -2.52680350
H   -2.94271185   1.18287902  -1.25575283
H   -2.02477720   4.09708830  -0.72517911
H   -2.49261768   2.88792921   0.53249843
H   -0.19490252   2.58274441  -1.51906016
H   -1.29374406   0.67083095   0.61916699
H    0.29561870   1.45065724   0.67138677
H   -0.64733669  -0.44922097  -1.54045177
H    0.99634364   0.21203731  -1.35692888
H    1.25673848  -0.49115762   1.67252109
H    2.35988046  -0.72619106   0.28049852
