20
Energy: 1.992
N    1.70079466  -0.97473922  -4.01773013
C    1.26790879  -0.31851541  -3.18997371
C    0.72366386   0.53257093  -2.15158775
O    0.27644924  -0.25570020  -1.07695254
C   -0.26720486   0.50586622  -0.02163567
C   -0.71776405  -0.45131856   1.07770775
C   -1.28770475   0.29851802   2.25731108
C   -0.36609715   0.85521778   3.30084292
C   -1.24429474  -0.31524805   3.62341296
H   -2.08380178  -0.16301990   4.28408236
H   -0.78051054  -1.28389864   3.72839822
H   -0.59953112   1.81196630   3.74236948
H    0.69244920   0.67606126   3.18948272
H   -2.16367113   0.88871482   2.01415754
H   -1.46437221  -1.13126316   0.66197439
H    0.14048061  -1.04805736   1.38895418
H   -1.12173108   1.09980355  -0.38423217
H    0.48838234   1.20475839   0.37127003
H    1.51363295   1.23459035  -1.82832709
H   -0.10482973   1.12215223  -2.58439084
