20
Energy: 0.493
N    3.47221368  -0.43360332  -0.77018943
C    2.54875839  -1.06667218  -0.99857838
C    1.35271565  -1.84700776  -1.27211506
O    0.30053142  -1.57915996  -0.38049139
C   -0.22205463  -0.26789128  -0.48548031
C   -1.35663287  -0.12409518   0.52403253
C   -1.95860879   1.25927929   0.47687130
C   -1.30224674   2.38053261   1.22490484
C   -2.61349624   1.83061527   1.69751228
H   -3.50015885   2.43304867   1.57289645
H   -2.61905247   1.23267836   2.59584516
H   -1.28618992   3.36246413   0.77757407
H   -0.42031186   2.15415308   1.80425787
H   -2.40612062   1.50543864  -0.47911001
H   -2.11667409  -0.87748288   0.30490950
H   -0.95999967  -0.32805233   1.51934697
H   -0.59582383  -0.09597648  -1.50783497
H    0.56211382   0.47513726  -0.28019189
H    1.05083831  -1.65526844  -2.31745093
H    1.59118463  -2.90995891  -1.15579388
