20
Energy: 0.038
N    2.50680466  -0.85293635  -1.43870728
C    1.71708850  -0.07417871  -1.71500040
C    0.71928208   0.91915546  -2.07723998
O    0.31433016   1.75189861  -1.01838292
C   -0.64003932   1.19856789  -0.13650786
C   -0.08539639   0.13021574   0.81008143
C   -1.13868531  -0.30628230   1.79986750
C   -1.05821602  -1.66660451   2.42262693
C   -2.12565570  -1.36722752   1.41435225
H   -3.14573754  -1.27543296   1.75453621
H   -2.03462598  -1.81524421   0.43625847
H   -1.34368911  -1.77779870   3.45724547
H   -0.24563580  -2.31148591   2.12518561
H   -1.50532228   0.49870942   2.42592038
H    0.25380523  -0.73460467   0.23630390
H    0.77920543   0.54282392   1.33626519
H   -1.48584234   0.78520453  -0.70763354
H   -0.99811981   2.05385236   0.44276210
H    1.16468631   1.58078061  -2.83057938
H   -0.14292165   0.39602279  -2.52565650
