20
Energy: 0.452
N    3.11574022  -0.02214787   2.16589550
C    2.51778630  -0.45168593   1.29185603
C    1.73230356  -0.97348243   0.18645842
O    1.18596456   0.02967176  -0.63709514
C    0.30888409   0.93819372   0.00353370
C   -1.04511799   0.33427045   0.39406611
C   -1.77268617  -0.21059572  -0.81273201
C   -2.65744131   0.69293135  -1.61630460
C   -3.25919320  -0.39001150  -0.77270975
H   -3.69046201  -1.24816013  -1.26505445
H   -3.77988678  -0.10084233   0.12775937
H   -2.67467679   0.57954268  -2.68919978
H   -2.77399818   1.71442812  -1.28691405
H   -1.20050434  -0.94768138  -1.36310527
H   -0.90236148  -0.45771588   1.13531706
H   -1.63859205   1.11950226   0.86477148
H    0.15619139   1.72467170  -0.73932360
H    0.79383995   1.37376569   0.88848757
H    2.38838892  -1.56535306  -0.46165113
H    0.95530646  -1.63583999   0.60264606
