20
Energy: 0.42
N    1.31452062   0.74279770   2.80640345
C    0.70224830   1.33879785   2.04746539
C   -0.07322993   2.06681549   1.05854346
O   -1.25251556   1.40715737   0.66016452
C   -1.08399270   0.08910982   0.17102406
C   -0.31880836   0.00054310  -1.15400854
C   -0.37326110  -1.40519276  -1.70221689
C    0.57580820  -2.44050616  -1.17785236
C    0.73629541  -1.91417359  -2.57169860
H    0.48731903  -2.56092650  -3.39882522
H    1.56756274  -1.25581224  -2.77379810
H    0.21902418  -3.45018523  -1.04634626
H    1.29792088  -2.13720578  -0.43495823
H   -1.37620991  -1.73691549  -1.94296673
H   -0.76419495   0.69971466  -1.86735221
H    0.72564806   0.28184501  -1.00116139
H   -2.10576824  -0.27205923   0.03123390
H   -0.59122529  -0.53967274   0.92542938
H   -0.39863035   3.01730714   1.49629106
H    0.58620511   2.28109570   0.20081809
