20
Energy: 0.501
N    2.75859060  -2.58484221  -0.40300159
C    2.40836661  -1.85182424   0.40056329
C    1.93772883  -0.90851650   1.40193779
O    1.28613363   0.20761720   0.85110810
C    0.06979860  -0.10210861   0.19678993
C   -0.53359822   1.19638200  -0.32933316
C   -1.85433737   0.94619869  -1.01586003
C   -2.87644206   2.03917667  -1.09004296
C   -3.11051280   0.85467591  -0.20245947
H   -3.86300654   0.13622389  -0.48917985
H   -3.03553690   1.00099145   0.86438991
H   -3.46584321   2.13403843  -1.98891001
H   -2.64217584   2.98400360  -0.62412882
H   -1.77797126   0.28783831  -1.87317445
H   -0.66815422   1.88183364   0.50870354
H    0.17532887   1.65137487  -1.02431242
H   -0.62416780  -0.58333511   0.90428652
H    0.24972154  -0.80147027  -0.63286436
H    1.27740049  -1.45349012   2.10031062
H    2.80122204  -0.51944892   1.95264798
