20
Energy: 1.91
N    3.60613760  -1.84576276   0.16659501
C    2.73824286  -1.40795319  -0.43208398
C    1.65013767  -0.84990477  -1.20904025
O    0.50225407  -0.73980858  -0.40648010
C   -0.60242359  -0.19357981  -1.09343806
C   -1.76478036  -0.06894291  -0.11245493
C   -1.47696295   0.96656925   0.94881083
C   -2.60828608   1.64636525   1.65615136
C   -1.77058500   2.41073639   0.67572867
H   -1.09082611   3.15924647   1.05318052
H   -2.21502280   2.66947848  -0.27406282
H   -2.50227127   1.86723525   2.70694065
H   -3.61581333   1.38708941   1.36790178
H   -0.59090588   0.74129858   1.52807797
H   -2.66332781   0.20274198  -0.66887893
H   -1.92454427  -1.04236939   0.35569647
H   -0.87951438  -0.84771534  -1.93611527
H   -0.34220943   0.79733770  -1.49803327
H    1.96629424   0.13865898  -1.58887088
H    1.46824255  -1.51022952  -2.07655652
