20
Energy: 1.825
N   -1.76114542   0.33203724  -3.61771416
C   -0.93057147   0.18149275  -2.84899447
C    0.13781264   0.00710876  -1.88555651
O   -0.31920574  -0.79228018  -0.81930947
C    0.69077338  -1.22602675   0.06368772
C    1.27993985  -0.11712425   0.94365895
C    0.21092227   0.53404634   1.78987580
C    0.59157977   1.28485797   3.02869678
C   -0.11568583  -0.03211287   3.13800374
H   -1.14535248  -0.03859498   3.46011439
H    0.45135006  -0.88367671   3.48314841
H    0.04874068   2.18423067   3.27575097
H    1.63676434   1.32282420   3.29699783
H   -0.61772609   0.92247110   1.21030435
H    2.04258239  -0.56368654   1.58385302
H    1.77179460   0.63431962   0.31871907
H    1.49636871  -1.72197382  -0.50062391
H    0.19316436  -1.96628852   0.69459866
H    0.99148469  -0.46993373  -2.39888534
H    0.45018189   1.00833058  -1.54401702
