20
Energy: 1.769
N   -1.14079024   0.48936145  -2.48017646
C   -0.34928722   1.03017466  -1.85779844
C    0.64940056   1.73600706  -1.07078449
O    0.68909508   1.35913332   0.28356592
C    1.43872130   0.19809992   0.57846050
C    0.85976384  -1.11781073   0.05446819
C   -0.44560146  -1.56388733   0.68531556
C   -1.37385777  -0.62624944   1.39400328
C   -0.61164538  -1.65513157   2.17272617
H   -1.14788154  -2.50054129   2.57671409
H    0.19809412  -1.32188174   2.80400840
H   -2.43547756  -0.76645684   1.25752474
H   -1.08365697   0.40672000   1.49462894
H   -0.91555297  -2.35229731   0.10813137
H    0.71200125  -1.03523045  -1.02582517
H    1.61443067  -1.89302914   0.22068772
H    1.49431030   0.18614625   1.66896304
H    2.46000445   0.31541054   0.18090287
H    1.63313995   1.60298977  -1.55231546
H    0.38935958   2.80206186  -1.08197507
