20
Energy: 0.449
N   -0.20134233   1.43916135   2.98738234
C    0.05667473   1.84739365   1.95179791
C    0.37013072   2.33767798   0.61920866
O    0.48408196   1.31356002  -0.33469004
C   -0.73107128   0.63497394  -0.59580159
C   -0.45175738  -0.47757558  -1.60185309
C    0.39989105  -1.56478352  -0.99039122
C    0.34710854  -2.95642484  -1.54131519
C   -0.25048260  -2.65861614  -0.19923313
H    0.25003442  -3.02835844   0.68226151
H   -1.32698852  -2.65381584  -0.11478046
H    1.25988347  -3.53045153  -1.58360583
H   -0.32479952  -3.15126356  -2.36360305
H    1.35828947  -1.20403266  -0.64014359
H   -1.40398566  -0.89146834  -1.93716401
H    0.06243573  -0.04348681  -2.46217566
H   -1.46905508   1.34558359  -1.00236606
H   -1.13580657   0.20868615   0.33332354
H   -0.40682937   3.06897381   0.33197651
H    1.34304302   2.84063490   0.64878366
