20
Energy: 0.971
N    1.33904402   1.88726351  -2.89711557
C    0.71371990   1.07605383  -2.39022615
C   -0.07286110   0.05904882  -1.71241886
O   -0.89359273   0.57693256  -0.69347168
C   -0.21129864   1.19072056   0.38295638
C    0.47646959   0.20811616   1.33898963
C   -0.50020921  -0.78562045   1.92401766
C    0.00616416  -2.02027362   2.60708534
C   -0.69920397  -2.12823672   1.28940648
H   -1.69392123  -2.54548322   1.26696175
H   -0.10929826  -2.38122775   0.42113687
H   -0.50116570  -2.36482817   3.49486024
H    1.07278403  -2.18718857   2.62705094
H   -1.37838960  -0.31657337   2.35118445
H    1.28210452  -0.32130729   0.82521532
H    0.93043401   0.79759633   2.13996052
H   -0.99404165   1.73289747   0.91954944
H    0.52209573   1.91725013   0.00535145
H   -0.75188783  -0.40288897  -2.43760089
H    0.62034378  -0.71087123  -1.33626794
