18
Energy: 0.676
O   -3.40205857   2.25288575   1.80256589
C   -2.21918686   2.22746331   1.61770234
C   -1.42288656   1.01570859   1.23512381
H   -2.09430792   0.20974802   0.93419007
H   -0.87858124   0.69084651   2.12760204
C   -0.41233639   1.33130031   0.12369585
C    0.40961990   0.17468775  -0.17033327
C    1.06552001  -0.81312588  -0.35934867
C    1.89119724  -1.94065877  -0.67085775
C    1.67763077  -2.67603413  -1.94578867
N    2.85486996  -1.86554631  -1.75495961
H    2.83467387  -0.98245380  -2.25670549
H    1.85779873  -3.74243211  -1.96504062
H    0.89256505  -2.33697771  -2.61264682
H    2.24068176  -2.49931462   0.19211170
H   -0.94418466   1.63096656  -0.78417231
H    0.23245895   2.16015033   0.43278456
H   -1.60315138   3.14382108   1.73003683
