18
Energy: 0.475
O   -2.15201667  -1.49642816   2.55092774
C   -1.32089928  -0.94252571   1.88926843
C    0.15543252  -0.96036475   2.16287526
H    0.58490043  -1.74672204   1.53350478
H    0.33100085  -1.22949404   3.20605811
C    0.82159400   0.37982169   1.82309558
C    0.71228821   0.68604619   0.41029383
C    0.63179246   0.95547376  -0.75713140
C    0.49610952   1.20645737  -2.16023396
C    1.22032266   0.34526552  -3.13274803
N   -0.21364153   0.26327929  -3.00648797
H   -0.54000749  -0.56329237  -2.51418454
H    1.57128165   0.78735366  -4.05540926
H    1.84166828  -0.45723481  -2.75035182
H    0.32745426   2.24686005  -2.42076169
H    0.35429205   1.18214858   2.40137727
H    1.87971877   0.33601392   2.09691612
H   -1.59405975  -0.36333573   0.98488001
