18
Energy: 0.321
O   -0.68966887  -1.33613611  -1.88450087
C   -1.73604731  -1.44385043  -1.31320056
C   -2.50807326  -0.33056567  -0.66498479
H   -2.72687653  -0.62612894   0.36477350
H   -3.46515152  -0.24658408  -1.18877298
C   -1.75748808   1.00455982  -0.69786983
C   -0.55875936   0.94111223   0.11399299
C    0.40447339   0.85304940   0.82472640
C    1.62484931   0.72789168   1.56218779
C    2.34139242  -0.57534539   1.55158214
N    2.88408703   0.56511270   0.85612000
H    2.77525023   0.51699514  -0.15293742
H    2.88956963  -0.87317393   2.43565874
H    1.91176559  -1.39429309   0.98519546
H    1.69304553   1.34605326   2.45232776
H   -1.47026552   1.23241925  -1.72810621
H   -2.40442890   1.80513149  -0.32941089
H   -2.24123793  -2.42829608  -1.22436388
