18
Energy: 0.372
O    3.07050636   1.60700767  -1.80443769
C    2.06289393   1.12945248  -1.36581100
C    0.77999827   0.96471918  -2.12752693
H    0.97237214   1.06889915  -3.19692764
H    0.11786856   1.77852180  -1.81549536
C    0.10394750  -0.38017792  -1.82449295
C   -0.28969710  -0.48432459  -0.43336843
C   -0.58711045  -0.52965878   0.72929327
C   -1.00611123  -0.65313476   2.09277645
C   -2.38399462  -0.24346655   2.47492965
N   -2.00926909  -1.63543051   2.46428707
H   -2.37932644  -2.15845809   1.67597161
H   -2.54561776   0.17704397   3.45829903
H   -3.04077531   0.14344279   1.70335500
H   -0.21313436  -0.53430946   2.82497768
H   -0.78659010  -0.48343566  -2.45118645
H    0.78699449  -1.19930292  -2.06840912
H    2.00077440   0.76814929  -0.32030079
