18
Energy: 0.343
O   -0.11892138  -1.69976996  -3.48367451
C    0.04947695  -1.18555368  -2.41465258
C    1.38346621  -0.82750683  -1.82680665
H    1.51212991   0.25102532  -1.96154187
H    2.17591520  -1.33992627  -2.37526960
C    1.45456065  -1.16127467  -0.32927282
C    0.50254560  -0.38724706   0.44202703
C   -0.31186808   0.23842337   1.06459190
C   -1.22612922   1.04858121   1.81073501
C   -0.82841850   1.55804161   3.15037804
N   -0.94597186   2.45711158   2.02972082
H   -0.05471484   2.75958283   1.64729051
H   -1.59198409   1.67228341   3.90789487
H    0.15285013   1.29765151   3.53180981
H   -2.27522379   0.82961927   1.63627522
H    1.25702405  -2.22675072  -0.17920024
H    2.46254140  -0.94888751   0.03857792
H   -0.80318475  -0.91987167  -1.75913909
