18
Energy: 0.326
O    1.96962735  -0.75950946   3.29368811
C    1.28263922  -0.45318380   2.36099741
C    0.00040563   0.32224714   2.44758019
H    0.23025696   1.35203445   2.15665397
H   -0.35673283   0.32718087   3.47900074
C   -1.07122670  -0.24138174   1.50310569
C   -0.67924030  -0.12559735   0.11257616
C   -0.31755384  -0.04108948  -1.02950081
C    0.05185938   0.12202915  -2.40291045
C   -0.96855507  -0.08289755  -3.46525836
N   -0.46759450   1.23748679  -3.17498003
H   -1.11862000   1.82213914  -2.65882287
H   -0.65165552  -0.49155190  -4.41527361
H   -1.97575326  -0.35441327  -3.16858168
H    1.08427271  -0.12752963  -2.62852215
H   -1.25532358  -1.29353000   1.74015416
H   -2.00558071   0.30753964   1.65187014
H    1.55997798  -0.72574432   1.32351719
