18
Energy: 0.01
O    2.22931900   2.01071241   2.79861674
C    1.99843150   0.83826674   2.88066458
C    1.16014886   0.04149094   1.92588006
H    0.34940911  -0.42518212   2.49297161
H    1.77596991  -0.77126406   1.52967677
C    0.59926829   0.89928824   0.78854733
C   -0.20275765   0.10729637  -0.11995472
C   -0.88312963  -0.58742406  -0.82453555
C   -1.64425848  -1.37410945  -1.74781817
C   -2.39089252  -0.70133440  -2.84368478
N   -1.22157766  -1.49482691  -3.13256990
H   -0.39595682  -0.94577279  -3.35405138
H   -3.32627550  -1.13230940  -3.17462154
H   -2.33930926   0.37944578  -2.91578235
H   -2.05743479  -2.28848279  -1.33250365
H   -0.00921826   1.70560632   1.20774788
H    1.42578915   1.35817201   0.23874202
H    2.40992159   0.22897263   3.71137376
