18
Energy: 0.652
O   -4.09044851  -0.17940936   1.71021407
C   -3.40162718  -0.49302230   0.78220695
C   -1.90241535  -0.52266447   0.77993948
H   -1.59897101  -1.57322647   0.83012584
H   -1.51951682  -0.01541533   1.66709588
C   -1.32738373   0.10041365  -0.49990626
C    0.11596538  -0.02140031  -0.53297384
C    1.30663670  -0.17597162  -0.54592610
C    2.73548423  -0.26439407  -0.54618959
C    3.52476413   0.63879465  -1.42569800
N    3.53725483   0.81388877   0.00519102
H    2.98828587   1.60454063   0.32995076
H    4.45057800   0.27144691  -1.84758814
H    2.99144796   1.34661647  -2.05075025
H    3.12926110  -1.25553429  -0.34264837
H   -1.74902653  -0.39894650  -1.37799434
H   -1.59588462   1.15987047  -0.54724268
H   -3.85100790  -0.80439700  -0.18378536
