18
Energy: 0.494
O   -2.46282962   1.99422834   1.69009564
C   -1.84653130   1.22790489   1.00591448
C   -2.15584513   0.90439881  -0.42713170
H   -1.53372880   1.56378395  -1.04138896
H   -3.20129273   1.13798503  -0.63691682
C   -1.83893580  -0.55652139  -0.77206953
C   -0.42469361  -0.84125440  -0.62716704
C    0.74644233  -1.08835891  -0.53050732
C    2.14851832  -1.32320829  -0.35939720
C    3.12628590  -0.31632822  -0.85116405
N    2.92158110  -0.51023161   0.56293149
H    2.38432035   0.22759924   1.00899201
H    4.08153493  -0.66022734  -1.22420366
H    2.74880469   0.57952234  -1.33219541
H    2.43735326  -2.36973138  -0.37351708
H   -2.40964456  -1.22327310  -0.11898628
H   -2.13680927  -0.75680422  -1.80525601
H   -0.95979517   0.69009551   1.39718693
