18
Energy: 0.054
O   -2.38348087   0.19869027   3.33575744
C   -2.25394594   1.12519494   2.58785327
C   -1.42436596   1.13334919   1.33841061
H   -0.68826166   1.93802577   1.42482284
H   -2.07625147   1.39121061   0.49867097
C   -0.73094333  -0.20903250   1.09186553
C    0.06816215  -0.17224822  -0.11491671
C    0.71605692  -0.07529829  -1.12126202
C    1.50277962  -0.07071864  -2.31804163
C    2.89929737  -0.58007405  -2.27964141
N    1.86660194  -1.32132564  -2.96111514
H    1.54860433  -2.14419463  -2.45729138
H    3.63580054  -0.12502785  -2.92831171
H    3.29019134  -0.94474390  -1.33610238
H    1.26755134   0.72966460  -3.01328583
H   -0.09268975  -0.45010721   1.94662951
H   -1.48508821  -0.99655735   1.00692723
H   -2.76438499   2.09171351   2.77747315
