18
Energy: 0.233
O   -1.08741584   0.94550415  -1.89525837
C   -0.93425714  -0.11038679  -2.43807294
C    0.32490312  -0.92893056  -2.43978458
H    0.66014838  -1.01687953  -3.47761680
H    0.07161761  -1.93505452  -2.09430151
C    1.42606811  -0.31825445  -1.56690118
C    1.03003567  -0.31679042  -0.17284231
C    0.68492402  -0.35274476   0.97606263
C    0.18099966  -0.31332348   2.31504924
C   -0.06764592   1.00429868   2.95778825
N   -1.16986874   0.16471106   2.55807740
H   -1.63940234   0.48327647   1.71487828
H    0.07237977   1.09326390   4.02699432
H    0.15478853   1.90289945   2.39357537
H    0.47649618  -1.14630960   2.94585605
H    2.35196951  -0.88797482  -1.68254009
H    1.60731792   0.71319375  -1.88159291
H   -1.75653031  -0.58182795  -3.01555585
