18
Energy: 0.337
O   -3.73443530  -0.47838075   1.02565334
C   -2.58098641  -0.21838369   0.83183906
C   -1.87827269   1.01645733   1.31573697
H   -1.29548061   0.72781177   2.19605157
H   -2.61467005   1.76259975   1.61964195
C   -0.93158381   1.58810536   0.25077813
C    0.14369372   0.66749144  -0.06142716
C    1.00970988  -0.13127734  -0.29431550
C    2.10118857  -1.01082619  -0.58616733
C    2.79793784  -0.90649173  -1.89572712
N    3.45529562  -0.49393973  -0.68029352
H    3.51558735   0.51353975  -0.56457924
H    3.19470950  -1.80711439  -2.34456943
H    2.45728933  -0.15935552  -2.60416333
H    2.03358560  -1.98771414  -0.11686009
H   -1.49376372   1.81142877  -0.66103623
H   -0.49902453   2.52264616   0.61978583
H   -1.92100122  -0.90312740   0.26336531
