18
Energy: 0.57
O   -2.13188386   2.11539777  -1.47422716
C   -1.97066017   1.89441784  -0.30867691
C   -0.80084849   2.35837266   0.51054294
H   -1.11968499   3.25881144   1.04507239
H    0.02153911   2.62822954  -0.15438383
C   -0.36409432   1.29727371   1.52753199
C    0.07283534   0.08670476   0.85913878
C    0.39307980  -0.89870442   0.25277334
C    0.84370331  -2.09320246  -0.39453768
C    2.21368604  -2.14106278  -0.97137564
N    1.88779510  -2.90410797   0.20786890
H    2.25984408  -2.51332134   1.06870940
H    2.37900841  -2.72996378  -1.86340864
H    2.84108676  -1.26054815  -0.88712236
H    0.06164411  -2.66853469  -0.88030358
H    0.45790743   1.68715825   2.13434677
H   -1.19718369   1.05676166   2.19542811
H   -2.71735743   1.31602935   0.27270866
