18
Energy: 0.41
O    0.13360822   2.98528266  -1.94477158
C    0.07805691   1.86542322  -1.52304301
C   -0.14672312   0.63428894  -2.35053036
H    0.05674907   0.85548754  -3.39977889
H   -1.20590267   0.37490912  -2.25385438
C    0.70687952  -0.54551500  -1.86364650
C    0.35073240  -0.94197065  -0.51553098
C    0.04215816  -1.30072525   0.58815405
C   -0.34526645  -1.64922248   1.92161071
C    0.30418003  -0.97075166   3.07504884
N   -1.07249621  -0.69868216   2.74470464
H   -1.22173807   0.20110411   2.29729370
H    0.45102393  -1.52990640   3.98918689
H    1.06444444  -0.22370219   2.87458984
H   -0.66873743  -2.67812673   2.04659750
H    0.55755541  -1.39820132  -2.53174467
H    1.76584657  -0.27205649  -1.89360936
H    0.18635511   1.65151020  -0.44059976
