18
Energy: 0.289
O   -0.75591427  -3.26943303  -1.57838183
C   -0.39574074  -2.35894462  -0.88783868
C   -0.07866427  -2.45233605   0.57584869
H    1.01182114  -2.45033447   0.66787498
H   -0.45810422  -3.39456427   0.97514328
C   -0.65036995  -1.26097417   1.35916899
C   -0.06889936  -0.00441226   0.93086165
C    0.46453840   1.00927276   0.56997015
C    1.00924698   2.26547615   0.15187875
C    0.45195263   2.93964273  -1.05136377
N    0.22025403   3.47959443   0.26509400
H   -0.71973129   3.32337659   0.61726058
H    1.11731121   3.52393759  -1.67255586
H   -0.35906445   2.45702257  -1.58585823
H    2.06302129   2.40162993   0.37544069
H   -1.73525584  -1.21840805   1.22427265
H   -0.44641377  -1.40102989   2.42457745
H   -0.25895351  -1.33953254  -1.30016269
