18
Energy: 0.285
O   -0.83824717  -0.36698670   3.55233151
C   -0.45569018  -0.01501622   2.47282125
C   -0.13682708   1.39830301   2.08255990
H    0.95371626   1.48949929   2.07431905
H   -0.53621350   2.08562999   2.83039274
C   -0.67915440   1.73937141   0.68622968
C   -0.07654664   0.91603604  -0.34304989
C    0.47414026   0.24098824  -1.16976204
C    1.04034837  -0.58162790  -2.19544414
C    0.66455615  -2.01909875  -2.26958286
N    0.20734077  -1.08911457  -3.27149687
H   -0.77210782  -0.83415779  -3.18425585
H    1.40381907  -2.73060414  -2.61201535
H   -0.03458990  -2.40997625  -1.53826766
H    2.03965417  -0.29508350  -2.50889189
H   -1.76395894   1.59875911   0.66829990
H   -0.46997608   2.79016251   0.46669561
H   -0.29624884  -0.74122619   1.65126621
