18
Energy: 0.44
O    0.90755018  -1.13344188  -3.23732652
C    0.70968099  -0.52834672  -2.22250792
C    1.44618887   0.70511256  -1.78871218
H    1.92955325   1.16580618  -2.65211049
H    2.22807419   0.38013220  -1.09449231
C    0.52424761   1.70522296  -1.07757279
C   -0.02359958   1.14818063   0.14370878
C   -0.47609965   0.70751644   1.16497039
C   -0.97642117   0.11262916   2.36743860
C   -1.80926690  -1.11694723   2.28659767
N   -0.46851992  -1.17264786   2.81435812
H    0.20909626  -1.58754321   2.18125663
H   -2.59270003  -1.26117543   3.01825097
H   -2.02165098  -1.53570042   1.30892797
H   -1.17235399   0.81384904   3.17289246
H    1.09186656   2.60680550  -0.83085573
H   -0.29476019   1.99124169  -1.74427597
H   -0.05967706  -0.85813009  -1.49559093
