18
Energy: 0.641
O    3.71026712  -1.79601289  -1.50683534
C    2.58632142  -1.51166813  -1.80670127
C    1.48492847  -1.18138832  -0.84417544
H    1.89823155  -1.03039327   0.15454388
H    0.81432597  -2.04583980  -0.80927493
C    0.68696509   0.04877235  -1.29991395
C   -0.42875893   0.30259137  -0.41120415
C   -1.36167149   0.45237622   0.32980986
C   -2.44808392   0.73225962   1.21904834
C   -2.16322128   1.04849403   2.64434447
N   -2.63642950   2.07234404   1.74668440
H   -1.91942095   2.72966909   1.45381358
H   -2.87603099   0.73719701   3.39604247
H   -1.13054233   1.05729785   2.97541228
H   -3.37422485   0.21725573   0.98254756
H    1.33883615   0.92722370  -1.31201703
H    0.30698646  -0.10946107  -2.31397727
H    2.26890957  -1.47850739  -2.86964418
