18
Energy: 0.074
O    1.78650712  -1.37456586   1.40743011
C    1.02218106  -0.68506507   2.01925160
C    1.08211239   0.81165806   2.11797738
H    1.86317603   1.18916822   1.45594866
H    1.33045359   1.07558315   3.14942314
C   -0.28159779   1.41684146   1.75102097
C   -0.65661206   1.00829873   0.41091400
C   -0.93215869   0.66492446  -0.70568957
C   -1.23339369   0.16005188  -2.01054864
C   -0.12482689  -0.33623415  -2.86871134
N   -1.07469774  -1.25587648  -2.29324492
H   -0.70568876  -1.78773875  -1.51000238
H   -0.20398550  -0.21054732  -3.94030344
H    0.88646353  -0.29698801  -2.47969977
H   -2.09429358   0.61442713  -2.49137434
H   -1.04397835   1.07732214   2.45896244
H   -0.22759716   2.50749498   1.80047805
H    0.16949801  -1.12897061   2.57286700
