18
Energy: 0.489
O    1.94444287   1.75370045   2.43018967
C    1.43345344   0.96329618   1.68910953
C    1.25241402  -0.49968608   1.97162969
H    0.23899798  -0.62269732   2.36767800
H    1.95680602  -0.81263679   2.74452485
C    1.40823099  -1.35487792   0.70720327
C    0.38879708  -1.04365290  -0.27563283
C   -0.46765526  -0.81669732  -1.08616353
C   -1.47804009  -0.46741990  -2.03872782
C   -2.77785471   0.07649248  -1.56300241
N   -1.83734237   0.92312681  -2.25417940
H   -1.34299157   1.57331025  -1.65020955
H   -3.67395223  -0.15907693  -2.12110520
H   -2.92864024   0.19774823  -0.49572355
H   -1.47235674  -1.06659973  -2.94417428
H    2.39621473  -1.18869113   0.26765034
H    1.32954107  -2.41247591   0.97450156
H    1.03154047   1.27353622   0.70366848
