18
Energy: 0.35
O   -2.39069565  -2.48160985  -1.72108838
C   -1.75665184  -1.67220132  -1.10580015
C   -2.33839417  -0.54330255  -0.30552851
H   -3.39769688  -0.73162035  -0.12155479
H   -2.25106064   0.35926171  -0.91858316
C   -1.58489477  -0.33149190   1.01572231
C   -0.20612646   0.05722787   0.79572069
C    0.93819233   0.35112017   0.57990039
C    2.29096342   0.77399375   0.37891321
C    2.56087230   2.02357651  -0.38161157
N    2.79229683   1.96628696   1.03992847
H    2.09182241   2.45044270   1.59389541
H    3.45563560   2.07819846  -0.98692336
H    1.71792122   2.58612177  -0.76820812
H    3.01534187  -0.03233978   0.31532811
H   -2.08416590   0.45276864   1.59201673
H   -1.60870977  -1.25227811   1.60580799
H   -0.64902075  -1.69509869  -1.08956511
