18
Energy: 0.294
O    2.79348866   2.10016961   1.23741316
C    2.08677739   1.26744322   0.74488303
C    2.45811666  -0.17122655   0.53380739
H    3.36578895  -0.40280462   1.09388268
H    2.66542955  -0.29625523  -0.53332071
C    1.31591301  -1.11623548   0.93730597
C    0.13430253  -0.91371328   0.12312547
C   -0.81731417  -0.76500980  -0.59426559
C   -1.98861884  -0.52598464  -1.38159263
C   -3.32867765  -0.83199391  -0.81340243
N   -2.91351621   0.53328843  -1.01740543
H   -2.66073286   1.02064068  -0.16261672
H   -4.10742316  -1.17583712  -1.48070744
H   -3.38378349  -1.23387594   0.19239657
H   -1.84734445  -0.63910045  -2.45220956
H    1.65017877  -2.15154220   0.82443801
H    1.05934588  -0.95581714   1.98869341
H    1.06601581   1.51194511   0.38978876
