18
Energy: 0.643
O    0.07211738   0.43205861   4.38967710
C   -0.20650898  -0.30940166   3.49152698
C    0.26154069  -0.17473325   2.07336063
H    1.03931154  -0.92884719   1.91603348
H    0.70775748   0.80969018   1.92202897
C   -0.87854235  -0.42029080   1.07481294
C   -0.39053703  -0.37584018  -0.28864008
C    0.05029385  -0.37510028  -1.40545749
C    0.55284864  -0.28470846  -2.74274843
C   -0.31074760   0.27927706  -3.81438457
N    0.83369145   1.01223792  -3.33355155
H    0.59935779   1.79415129  -2.72880062
H   -0.21186171  -0.11203624  -4.81793596
H   -1.31039960   0.60839136  -3.55285169
H    1.26745799  -1.05627724  -3.01276383
H   -1.33107377  -1.39936018   1.26075753
H   -1.65143928   0.34341920   1.20182784
H   -0.85643618  -1.19312452   3.66044514
