18
Energy: 0.3
O    2.00232445   3.12889090   0.49825869
C    1.21119322   2.22906019   0.50641996
C    0.28254463   1.90075804   1.63860682
H   -0.70936397   2.26616910   1.35536401
H    0.60092539   2.42754759   2.53992154
C    0.20637286   0.38774999   1.89200327
C   -0.33865442  -0.32269542   0.75228572
C   -0.82292709  -0.86286468  -0.20481046
C   -1.35036280  -1.59235446  -1.31811498
C   -0.41795634  -2.17051084  -2.32253549
N   -1.14421359  -3.02654740  -1.41790138
H   -0.57827186  -3.41011751  -0.66652456
H   -0.73689198  -2.22415186  -3.35473294
H    0.64756356  -2.02206919  -2.18497775
H   -2.32862630  -1.26280555  -1.65492526
H    1.20569375   0.00055323   2.11215872
H   -0.42896959   0.20149682   2.76270042
H    1.09931981   1.54950927  -0.36167033
