18
Energy: 0.591
O   -3.28695656   0.68146580   0.50412180
C   -2.52056729   0.01671136   1.13974644
C   -1.45958244   0.55212427   2.05778863
H   -1.86035021   0.50398886   3.07525071
H   -1.26601804   1.59845977   1.81503033
C   -0.17340047  -0.27858963   1.98312021
C    0.38992835  -0.23695247   0.64725073
C    0.79666033  -0.16517590  -0.47994206
C    1.36111095  -0.14245766  -1.79538573
C    2.70278205   0.46281371  -2.00772319
N    2.51709805  -0.96350692  -2.11102285
H    2.87430630  -1.48542413  -1.31594721
H    2.90231701   0.96477255  -2.94482627
H    3.22421066   0.87732220  -1.15182223
H    0.63308042  -0.07519526  -2.59787865
H    0.55892991   0.11365180   2.69438720
H   -0.38629355  -1.31859934   2.25023763
H   -2.55492020  -1.09113871   1.10002812
