18
Energy: 0.0
O    0.13202414  -0.76265221   4.02894149
C    0.40315193  -1.58163817   3.19798430
C    0.31281279  -1.38697772   1.71370327
H   -0.35488752  -2.15365712   1.30996341
H    1.30219778  -1.57414842   1.28596536
C   -0.18309341   0.01238033   1.33913699
C   -0.25682989   0.17688274  -0.09723343
C   -0.33954228   0.25710272  -1.29253811
C   -0.36628576   0.42611479  -2.71414540
C   -0.56787965   1.78294522  -3.28822050
N    0.71229422   1.12658117  -3.39040953
H    1.41568981   1.49605077  -2.75721015
H   -1.10722635   1.87601686  -4.22128107
H   -0.69184713   2.61823295  -2.60789231
H   -0.75184227  -0.42585505  -3.26615289
H   -1.17112867   0.17725541   1.77798276
H    0.49503397   0.76170057   1.75695505
H    0.75861339  -2.59301879   3.48336594
