18
Energy: 0.487
O   -1.16260985  -1.69120840   2.97991247
C   -0.62456622  -1.32305033   1.97483540
C   -0.22692514  -2.21067987   0.83094960
H   -1.04174464  -2.16945087   0.10053564
H   -0.14078261  -3.24112993   1.18069486
C    1.07460336  -1.74644825   0.16405060
C    0.92970224  -0.42924271  -0.42420850
C    0.82416227   0.65673691  -0.92557023
C    0.62975194   1.96191303  -1.48134684
C   -0.48906687   2.19517933  -2.43294440
N   -0.52787242   2.75371544  -1.10418267
H   -1.16322630   2.27564152  -0.47187247
H   -0.35269395   2.91747044  -3.22642238
H   -1.13525426   1.36166629  -2.68604543
H    1.53935575   2.54163916  -1.60537019
H    1.88125545  -1.72372690   0.90263410
H    1.35206749  -2.45710560  -0.61980457
H   -0.38378446  -0.25427652   1.80732686
