18
Energy: 0.608
O    2.87411224  -1.24686496   1.26063989
C    1.88802092  -0.83135284   1.79747691
C    1.55087153   0.61818590   1.99696829
H    2.14133557   1.22507276   1.30835424
H    1.84144856   0.87807319   3.01974171
C    0.05163854   0.88181385   1.81646467
C   -0.36645840   0.56440760   0.46438166
C   -0.64637238   0.27508489  -0.66658411
C   -1.06194523  -0.01623744  -2.00529755
C   -2.34598521  -0.72953155  -2.23704419
N   -2.20802066   0.66373161  -2.58312501
H   -2.67213843   1.29754249  -1.93892916
H   -2.41959756  -1.40261263  -3.08049259
H   -2.94182840  -1.01438704  -1.37675393
H   -0.24746566  -0.18321048  -2.70337322
H   -0.52139390   0.27312915   2.52314932
H   -0.16296440   1.93476062   2.02031451
H    1.12905259  -1.52451990   2.21464870
