18
Energy: 0.682
O   -1.09344902  -0.39419587  -3.03580715
C    0.01364987  -0.55641539  -2.61002068
C    0.96870359   0.54072264  -2.23564517
H    0.40872457   1.46043796  -2.05619331
H    1.62235394   0.70417066  -3.09847640
C    1.82326976   0.16618917  -1.01934163
C    0.99473524  -0.06126656   0.14904399
C    0.30132285  -0.28427245   1.10326092
C   -0.55389393  -0.47217429   2.23584835
C   -0.51908503   0.51472172   3.34832643
N   -1.66202619   0.43556093   2.47378570
H   -1.72230172   1.19135663   1.79775466
H   -0.69266507   0.16470878   4.35706662
H    0.16210214   1.35538552   3.27194926
H   -0.77324164  -1.50859880   2.47342846
H    2.39433333  -0.74283982  -1.23157037
H    2.53167477   0.97179389  -0.80645233
H    0.43084812  -1.57464106  -2.47199866
