18
Energy: 0.644
O    0.77708357  -0.42355906  -4.30076131
C    0.09264944  -0.81837141  -3.40090079
C   -0.07477860  -0.14384579  -2.07221370
H   -1.06960666   0.31256662  -2.06215917
H    0.66592322   0.65025107  -1.96359902
C    0.02337726  -1.14807485  -0.91455614
C   -0.23808296  -0.50238725   0.35576375
C   -0.49916190   0.04198821   1.39363543
C   -0.72433958   0.72036911   2.63387163
C    0.19661124   0.48084539   3.77710354
N    0.20003931   1.74572949   3.08570005
H    0.99589762   1.87704654   2.46814273
H   -0.20564280   0.51155411   4.78072848
H    1.02092544  -0.21041507   3.64027550
H   -1.76556741   0.93865218   2.85084331
H   -0.70186933  -1.95469259  -1.06011780
H    1.02460757  -1.58823523  -0.89197132
H   -0.49706047  -1.75354966  -3.49864293
