23
Energy: 1.281
C   -1.61632670  -0.71481115  -0.22154184
H   -2.27317790  -1.35889447   0.35896004
H   -1.48832163  -1.15027226  -1.20853443
H   -2.09266954   0.25668612  -0.33269213
C   -0.25574736  -0.58433103   0.47086635
C   -0.48603381  -0.16478108   1.91507477
O   -0.42907453  -0.96377322   2.81612382
C   -0.80362955   1.28899700   2.15423390
H    0.11093541   1.87070643   2.05412782
H   -1.52471485   1.65721892   1.43049028
H   -1.18977034   1.41881161   3.16193649
C    0.68032001   0.37073278  -0.28109633
C    1.09164140  -0.18161731  -1.62706545
C    0.33312241   0.18358671  -2.86714079
C    1.70967081   0.73145390  -2.64325360
H    1.80426802   1.77746105  -2.39343833
H    2.51958216   0.35796807  -3.25066301
H   -0.50044408   0.86323191  -2.77495485
H    0.19625040  -0.56642986  -3.63142422
H    1.48909445  -1.18865469  -1.57681167
H    0.19372907   1.33661100  -0.42556300
H    1.57943068   0.52886617   0.32267047
H    0.20502263  -1.57787684   0.50409776
