23
Energy: 1.139
C   -0.07252592  -0.23051151   2.03301466
H   -0.41249718   0.78373378   1.84637979
H    0.70979308  -0.19125480   2.78691798
H   -0.90214122  -0.81823861   2.41811856
C    0.46903979  -0.84915139   0.74812610
C    1.64772221  -0.04470285   0.21879614
O    2.00333535   0.99385304   0.71441565
C    2.34955583  -0.63794856  -0.98095982
H    1.81358918  -0.34285634  -1.88172197
H    3.36002251  -0.24212114  -1.04522465
H    2.37515246  -1.72269266  -0.93352987
C   -0.62527668  -0.97607350  -0.32771248
C   -1.16376502   0.36527862  -0.77091431
C   -2.42700810   0.42004083  -1.57687202
C   -2.41717638   0.91911506  -0.16437543
H   -2.92530466   0.32917339   0.58325139
H   -2.48243742   1.98279805   0.00615662
H   -2.93582080  -0.50992641  -1.78217119
H   -2.50000117   1.13880629  -2.37859441
H   -0.39189526   1.08182238  -1.02671853
H   -0.22221774  -1.50989361  -1.19267440
H   -1.44299327  -1.57688041   0.07651069
H    0.84282985  -1.85741298   0.96518249
