23
Energy: 0.826
C   -1.58350399   0.67468128   0.32440313
H   -1.34053824   1.25054048   1.21278292
H   -1.97970386  -0.29095117   0.62963434
H   -2.35462791   1.20335458  -0.23227358
C   -0.32961773   0.47739982  -0.53474003
C   -0.74326454  -0.32602960  -1.75940054
O   -0.77999500  -1.52975554  -1.76347943
C   -1.12101713   0.50391863  -2.96047213
H   -1.59560401  -0.11615814  -3.71627728
H   -1.78511737   1.31433068  -2.67085377
H   -0.21600227   0.94225074  -3.37845905
C    0.76990902  -0.26504384   0.23552526
C    1.26478585   0.50131490   1.43870689
C    0.69473888   0.23910160   2.80008100
C    2.08788948  -0.20497128   2.47379858
H    2.26437125  -1.26154265   2.34221577
H    2.91636835   0.31982896   2.92458928
H   -0.06614007  -0.52032050   2.89545286
H    0.56564677   1.06957216   3.47825409
H    1.54396267   1.52532465   1.21525255
H    0.38686196  -1.23872604   0.54408214
H    1.60766570  -0.44256283  -0.44622550
H    0.04192039   1.45699332  -0.85175808
