23
Energy: 1.047
C   -2.30565922   0.73544918   0.62727696
H   -2.47670970   0.65027408   1.69811747
H   -2.88869258  -0.03580801   0.12915625
H   -2.66102484   1.71024725   0.30068704
C   -0.81278036   0.57838104   0.32628098
C   -0.52437511   0.94934195  -1.12161081
O    0.13048753   1.92330840  -1.39774809
C   -1.11174254   0.05730618  -2.18589338
H   -0.91209355   0.48200154  -3.16636064
H   -0.66358488  -0.93184633  -2.12929618
H   -2.18435372  -0.04588654  -2.04618696
C   -0.33118127  -0.83752234   0.67187608
C    1.15792428  -0.98588605   0.46611206
C    2.10030571  -0.56176977   1.55133047
C    1.92155015  -2.01692157   1.24077311
H    1.37795218  -2.62397918   1.94915661
H    2.72604355  -2.54232911   0.74942448
H    1.67828171  -0.18549003   2.47097327
H    3.02705498  -0.08445717   1.27369395
H    1.48026961  -0.80158287  -0.55215618
H   -0.57033000  -1.03657584   1.71906649
H   -0.86992671  -1.57166743   0.06723327
H   -0.25492487   1.29289438   0.94163851
