23
Energy: 1.518
C    1.62630529   0.12305205   1.06288347
H    1.72792217   1.10556154   1.51794644
H    1.98374588   0.18568939   0.03881202
H    2.25643450  -0.56817329   1.61566308
C    0.15922119  -0.30360577   1.09675867
C   -0.09703044  -1.64331763   0.41794522
O   -1.09330537  -1.86032942  -0.22475029
C    0.95207551  -2.70582861   0.63538170
H    1.23281278  -2.76368909   1.68359429
H    0.57008375  -3.66723333   0.30133201
H    1.83826579  -2.45978098   0.05415554
C   -0.76509829   0.78229593   0.52441646
C   -0.42868709   1.15073967  -0.90195630
C   -0.97215319   2.42175312  -1.48100294
C    0.49437236   2.29276763  -1.20158884
H    0.89997244   2.85488224  -0.37377948
H    1.17191354   2.20815802  -2.03813358
H   -1.55544517   3.06296699  -0.83739795
H   -1.30439974   2.42272420  -2.50760771
H   -0.38800126   0.29622739  -1.56584710
H   -1.79114671   0.40712575   0.55663667
H   -0.70738829   1.67195745   1.15494140
H   -0.12714227  -0.46375102   2.14603020
