23
Energy: 1.599
C   -1.61314647  -1.25885509  -0.21339886
H   -1.22134419  -1.96660333  -0.93795441
H   -2.33650566  -0.61106778  -0.70215758
H   -2.13103896  -1.81112495   0.56710111
C   -0.48931991  -0.42762002   0.39740767
C   -1.02680191   0.44268702   1.52354122
O   -2.20498015   0.59285708   1.72392000
C    0.01841090   1.13177432   2.37121960
H    0.15709494   2.14454460   1.99510083
H   -0.34123532   1.21081877   3.39426749
H    0.97113768   0.61201533   2.34951182
C    0.19590486   0.47481234  -0.64765649
C    0.92249014  -0.32017826  -1.70710334
C    2.17154214   0.23311853  -2.32448727
C    2.25237462  -0.93268324  -1.38635002
H    2.66741133  -0.76087773  -0.40438710
H    2.48872796  -1.90510311  -1.79029370
H    2.53151287   1.18987999  -1.97740586
H    2.34713824   0.06235356  -3.37551744
H    0.27207018  -0.88315852  -2.36378672
H   -0.56172125   1.10705265  -1.11767089
H    0.91502420   1.12522892  -0.14684212
H    0.26827840  -1.09625699   0.82127580
