23
Energy: 1.15
C    1.44400952   0.76217213   1.30237299
H    2.50926076   0.88370228   1.11763828
H    1.32592579   0.09409045   2.15151040
H    1.02149355   1.72800626   1.56826435
C    0.75383030   0.17186204   0.07626034
C    1.03405997   0.94496666  -1.20240298
O    1.24404316   0.37548474  -2.24471570
C    0.99518215   2.44787114  -1.10422961
H    0.11578310   2.77506381  -0.55631605
H    1.87872813   2.79448449  -0.57223524
H    0.99347676   2.88098053  -2.10115164
C   -0.77774675   0.10135597   0.24973989
C   -1.19169702  -0.96775477   1.23277862
C   -2.50131227  -1.67497111   1.05227834
C   -1.21618681  -2.40035783   0.79324937
H   -0.95718000  -2.61719674  -0.23195820
H   -0.90500441  -3.16346055   1.49018836
H   -3.11175304  -1.40559398   0.20376789
H   -3.07257606  -1.93454782   1.93059107
H   -0.88442949  -0.77381298   2.25298743
H   -1.15218362   1.07239119   0.58479270
H   -1.22876150  -0.11846215  -0.72078861
H    1.11623906  -0.84893810  -0.08570058
