23
Energy: 1.6
C   -0.29331729   0.28323228  -2.04123149
H    0.71675984   0.47532497  -2.39417555
H   -0.95703922   1.00138894  -2.51666133
H   -0.59155670  -0.71684393  -2.34186186
C   -0.35979868   0.43850387  -0.52526742
C   -0.06465144   1.87600987  -0.12537166
O    0.39599402   2.68348783  -0.89130816
C   -0.36743280   2.22737923   1.31392070
H    0.56567340   2.22534366   1.87579702
H   -0.77030192   3.23644114   1.36028442
H   -1.06099218   1.52862390   1.77091363
C    0.63908771  -0.49005160   0.19361973
C    0.26686344  -1.94783610   0.05869338
C    0.60583079  -2.90573096   1.16085738
C   -0.82051955  -2.51264127   0.92207813
H   -1.28959678  -1.85820289   1.64169497
H   -1.49387728  -3.24316454   0.50066719
H    1.09886853  -2.51804045   2.03955028
H    0.91575480  -3.90564858   0.89863658
H    0.33741747  -2.33278638  -0.95037352
H    1.63611988  -0.32353106  -0.22193528
H    0.66992158  -0.23613982   1.25463725
H   -1.36865891   0.19116068  -0.17654533
