23
Energy: 0.0
C   -1.81929316  -1.01487758   1.57472337
H   -2.85001745  -0.72373952   1.38591593
H   -1.44904309  -0.46334792   2.43542812
H   -1.79600306  -2.07699553   1.81023456
C   -0.94686248  -0.71518882   0.35425769
C    0.49595828  -1.07252390   0.68685965
O    1.07890116  -0.57602636   1.61692638
C    1.12855865  -2.08926636  -0.22572197
H    1.10536109  -1.71731532  -1.24761328
H    2.15575551  -2.28275868   0.07160794
H    0.55654767  -3.01443114  -0.18876644
C   -1.02016946   0.77711207  -0.00818313
C   -0.32502693   1.08283396  -1.31372888
C    0.18254867   2.46835632  -1.57883966
C    1.14986768   1.34944129  -1.33863138
H    1.68335336   1.33244643  -0.40090154
H    1.72954417   0.98515941  -2.17386047
H    0.06119857   3.20847259  -0.80285302
H    0.09538256   2.86941138  -2.57723889
H   -0.74024016   0.54778913  -2.16144312
H   -2.07122560   1.07118808  -0.07991180
H   -0.56002247   1.35232495   0.79719565
H   -1.29002074  -1.30966728  -0.49745761
