23
Energy: 1.251
C   -1.31204784   0.51425047   1.85541953
H   -2.39611054   0.53543301   1.76202345
H   -0.93094796   1.49521404   1.58888169
H   -1.06855089   0.31967951   2.89757714
C   -0.74787833  -0.58128410   0.95848424
C    0.76554043  -0.74139737   0.99409253
O    1.28119948  -1.76098772   0.60467218
C    1.57713928   0.41445908   1.51271650
H    2.63609791   0.19415464   1.40518882
H    1.33265753   1.31772159   0.96094549
H    1.34971607   0.58167248   2.56293379
C   -1.18179651  -0.41533265  -0.51534067
C   -0.68293194   0.84814988  -1.17555136
C    0.68473880   0.88754559  -1.78810506
C   -0.52786352   0.87441929  -2.66755939
H   -0.74684923  -0.02882578  -3.21613373
H   -0.78908969   1.77718103  -3.19869999
H    1.28629189  -0.00711690  -1.74034983
H    1.25879803   1.80013998  -1.72225270
H   -1.04328911   1.76198553  -0.71823085
H   -0.81121684  -1.27727453  -1.07358473
H   -2.27485635  -0.43227729  -0.55413383
H   -1.15769793  -1.54377216   1.28873143
