23
Energy: 1.447
C    1.59443023   1.24205731  -0.24113681
H    2.16042339   1.74347491   0.54107004
H    1.17641357   2.00108274  -0.89666149
H    2.27504017   0.62342482  -0.82196587
C    0.47200765   0.40037158   0.37416456
C    1.04795973  -0.44607447   1.49977894
O    0.84448179  -0.17397766   2.65659124
C    1.88682976  -1.62995147   1.09193886
H    2.59013701  -1.35976633   0.30989516
H    2.42259885  -2.01461140   1.95589813
H    1.23395415  -2.41221715   0.70938451
C   -0.25357057  -0.45536683  -0.67515738
C   -1.09054555   0.38628836  -1.61063846
C   -2.35942595  -0.17165293  -2.18165898
C   -2.41586012   0.91008388  -1.14631933
H   -2.74571262   0.64223267  -0.15397407
H   -2.71912207   1.90007685  -1.45073740
H   -2.65382244  -1.16856740  -1.89021622
H   -2.61964851   0.07463610  -3.19980936
H   -0.51247236   1.02992245  -2.26193104
H    0.47425273  -1.02630506  -1.25660531
H   -0.90887329  -1.16196073  -0.16016154
H   -0.25333952   1.08083372   0.83323929
