23
Energy: 1.501
C    1.01534783   0.41206760   1.72371256
H    2.04654288   0.06720937   1.76654757
H    0.36974662  -0.42305046   1.97723938
H    0.89325345   1.19144479   2.47228713
C    0.71936758   0.94656059   0.32812690
C   -0.67777784   1.51732673   0.12460713
O   -0.94571253   2.13578458  -0.87660277
C   -1.69913046   1.27416810   1.20424550
H   -1.78208280   0.21128743   1.41497106
H   -1.39238025   1.77702381   2.11848929
H   -2.66338270   1.66387036   0.88763868
C    0.96302767  -0.11761925  -0.76390901
C    0.01194887  -1.28822725  -0.68598653
C    0.38083688  -2.58164016  -1.34927943
C    0.33935113  -2.49209141   0.14558383
H    1.27990904  -2.50698917   0.67506113
H   -0.45999368  -2.99557189   0.66896036
H    1.34713302  -2.64902757  -1.82563477
H   -0.39033493  -3.14158064  -1.85535928
H   -1.03140970  -1.00084165  -0.74548909
H    0.84542639   0.36723576  -1.73655248
H    1.99118964  -0.47674381  -0.68457253
H    1.41050775   1.77208203   0.11684522
