23
Energy: 1.385
C    0.24401646   1.69528264  -0.63908192
H    0.64187644   2.14475895  -1.54575014
H    0.73730846   2.13866463   0.22052300
H   -0.81900245   1.91726212  -0.59367499
C    0.46251558   0.18618043  -0.66597003
C   -0.19025698  -0.42492594  -1.89719557
O   -0.95983097   0.18465839  -2.59499719
C    0.16966938  -1.86587141  -2.17811491
H   -0.59165889  -2.50519199  -1.73303967
H    0.15661192  -2.04024790  -3.25125649
H    1.13818886  -2.13296195  -1.76694285
C   -0.11154599  -0.49624520   0.58992695
C    0.56874545  -0.03629305   1.85885410
C   -0.00841337   1.07787414   2.67788582
C   -0.07046882  -0.33103736   3.18316388
H   -1.02888637  -0.82774969   3.18218739
H    0.56088182  -0.61154291   4.01232290
H   -0.92650566   1.53416004   2.34115803
H    0.66597051   1.76818738   3.16189830
H    1.65007314  -0.10318460   1.81680740
H   -1.18086400  -0.28390390   0.65166941
H    0.01304761  -1.57872212   0.49986042
H    1.53665690  -0.02657924  -0.71284025
