23
Energy: 0.868
C    0.51673556   0.55396972   1.67221780
H    0.62707242   1.50187877   2.19489699
H    1.45863926   0.01583729   1.72160141
H   -0.25291358  -0.02513618   2.17606127
C    0.11232268   0.79696081   0.22079007
C   -1.25389357   1.46504096   0.15903782
O   -2.15704897   1.16042359   0.89510650
C   -1.39507491   2.51719258  -0.91200121
H   -0.80140553   3.38520253  -0.62951372
H   -1.01641947   2.14468286  -1.86083484
H   -2.43457721   2.81633461  -1.01676259
C   -0.00126964  -0.52387576  -0.56484085
C    1.32640072  -1.22996012  -0.71000426
C    1.73120574  -2.30304355   0.25459000
C    1.35169775  -2.66365936  -1.14906258
H    0.40636554  -3.16036336  -1.30616812
H    2.12684210  -2.98341230  -1.82861656
H    1.04310407  -2.56266066   1.04433662
H    2.76932031  -2.37739526   0.54198420
H    2.11572203  -0.59206313  -1.09180145
H   -0.71329465  -1.17570180  -0.05552176
H   -0.39970524  -0.30942084  -1.56196865
H    0.85330199   1.43480367  -0.27090903
