23
Energy: 1.079
C    0.40348805   1.76126706   0.21465939
H    0.10821833   2.56808851   0.88209185
H    0.28108629   2.10463719  -0.80903047
H    1.45569095   1.54128361   0.37519459
C   -0.46452302   0.52917603   0.44970254
C   -0.47831666   0.06067355   1.89628531
O   -1.48848554  -0.35206195   2.40982244
C    0.83399352   0.10634124   2.63518249
H    1.07982111   1.14172725   2.86206792
H    0.74922030  -0.44652092   3.56712754
H    1.63375966  -0.30997569   2.02905523
C   -0.01897002  -0.66295064  -0.42013853
C   -0.21732148  -0.40269711  -1.89511334
C    0.89741855   0.14977271  -2.73099438
C    0.47374231  -1.27774122  -2.89767530
H    1.13281345  -2.04860498  -2.52784375
H   -0.05835267  -1.55803169  -3.79356821
H    1.84722653   0.34073266  -2.25502614
H    0.65871976   0.85218704  -3.51526353
H   -1.22144110  -0.08045939  -2.14452842
H    1.03350486  -0.88406726  -0.22996660
H   -0.60560703  -1.54015347  -0.13109779
H   -1.50172864   0.76362426   0.18589481
