23
Energy: 0.214
C   -1.12049153  -0.70306270  -2.10706210
H   -1.21566536  -1.78581782  -2.14615300
H   -0.37437908  -0.39018015  -2.83359974
H   -2.07643913  -0.26123946  -2.38124844
C   -0.69960978  -0.25678492  -0.70427397
C   -0.54856247   1.25829538  -0.71801633
O    0.34629893   1.81015941  -1.30579494
C   -1.61103941   2.00727778   0.04373312
H   -1.55190431   1.73626908   1.09627307
H   -1.47521707   3.08007889  -0.06479135
H   -2.59492103   1.72126044  -0.32217167
C    0.63326255  -0.90427911  -0.30316136
C    1.00311559  -0.56469531   1.12107762
C    0.35180910  -1.30177358   2.25283054
C    1.80022544  -1.53098691   1.94258091
H    2.07926498  -2.47111430   1.49140883
H    2.54089003  -1.14218958   2.62429869
H   -0.34613068  -2.08943578   2.01082217
H    0.09725458  -0.75940359   3.15088972
H    1.20554270   0.48904549   1.27446433
H    0.55321077  -1.98755579  -0.41400667
H    1.41186648  -0.54492413  -0.97984952
H   -1.47093835  -0.54309704   0.01636465
