23
Energy: 0.915
C   -2.31906385   0.90047412   0.20616294
H   -2.64464565   1.32563937  -0.74085608
H   -2.14838291   1.71775518   0.90240646
H   -3.12115197   0.27380555   0.58978366
C   -1.04831187   0.07993906  -0.00711778
C   -0.63440616  -0.68416416   1.24022782
O   -0.31314052  -1.84537828   1.18960427
C   -0.64631411   0.08319895   2.53776666
H   -0.22549924   1.07673839   2.41396791
H   -1.67615464   0.18626236   2.87488361
H   -0.08857835  -0.46533750   3.29244742
C    0.10968387   0.98120961  -0.47497992
C    1.33209446   0.18195592  -0.85762897
C    1.42647140  -0.40916058  -2.23137806
C    2.30706936   0.74142471  -1.84904436
H    2.09412214   1.70852461  -2.27973788
H    3.35978110   0.55811267  -1.69835165
H    0.61842198  -0.21945283  -2.92198543
H    1.87143976  -1.38535112  -2.34354396
H    1.74155303  -0.40704751  -0.04614909
H   -0.23123168   1.55438088  -1.34025669
H    0.36461583   1.69417736   0.31411354
H   -1.22633932  -0.66732975  -0.78798810
