23
Energy: 1.586
C    1.00147363   0.67943684   1.57806178
H    1.38928767  -0.32443753   1.43070373
H    0.76352030   0.81569778   2.62968023
H    1.78833057   1.38528634   1.32065244
C   -0.21314675   0.93382797   0.69199414
C   -1.40288090   0.01192657   0.93611198
O   -2.31215462  -0.05429083   0.14585650
C   -1.41431951  -0.77671595   2.21994554
H   -0.56097890  -1.44946632   2.25125999
H   -1.34985152  -0.10437453   3.07207722
H   -2.33353108  -1.35372610   2.28276667
C    0.15374119   0.90592092  -0.80283284
C    0.70056826  -0.43289170  -1.24027734
C    1.44481292  -0.53756221  -2.53712363
C    2.17597020  -0.69757447  -1.23911114
H    2.83782866   0.09849926  -0.93300552
H    2.52781363  -1.68103321  -0.96496901
H    1.60739478   0.36818111  -3.10148193
H    1.29027892  -1.40926369  -3.15403731
H    0.05152465  -1.26323622  -0.98714176
H   -0.75106418   1.12185357  -1.37633323
H    0.88635516   1.68788238  -1.01148517
H   -0.59501934   1.94071452   0.91207206
