23
Energy: 1.064
C   -1.24065331  -1.17334365  -0.46249404
H   -1.05867294  -1.84764550   0.37163489
H   -1.48401847  -1.76340342  -1.34200397
H   -2.09651060  -0.54942857  -0.22066696
C   -0.01274159  -0.29164569  -0.70642844
C    1.20317234  -1.16004322  -0.99732077
O    2.18941211  -1.15179495  -0.30552222
C    1.08791060  -2.04938073  -2.21242375
H    0.60182998  -2.97800991  -1.91724594
H    0.50021673  -1.58287881  -2.99736354
H    2.08090089  -2.29389652  -2.58115449
C    0.26527616   0.63325476   0.48408114
C   -0.81813804   1.66414818   0.69203614
C   -1.92783490   1.42264187   1.67100012
C   -0.86651456   2.43512822   1.97668592
H   -0.14014639   2.19288805   2.73723108
H   -1.12702897   3.48202644   1.94416938
H   -1.92005475   0.50117398   2.23332119
H   -2.92006114   1.77468523   1.43021685
H   -1.07421888   2.21148846  -0.20868355
H    0.38165060   0.02925696   1.38539731
H    1.21833635   1.13980583   0.30791976
H   -0.19468215   0.32152595  -1.59753760
