23
Energy: 1.111
C   -1.73832118   1.80819174  -0.47725071
H   -1.98983626   2.03270777  -1.51131455
H   -1.61630427   2.74622201   0.05955077
H   -2.56289640   1.25761532  -0.02993298
C   -0.44849551   0.98202584  -0.39299912
C   -0.69213502  -0.29326167  -1.18655367
O   -1.06206071  -1.31820960  -0.67278766
C   -0.51295699  -0.17448855  -2.68144196
H    0.01875334   0.72797884  -2.96477704
H    0.01736573  -1.04970226  -3.04991192
H   -1.49693251  -0.17334296  -3.14859631
C   -0.08422578   0.67366033   1.06358287
C    1.34788141   0.21247362   1.20196895
C    1.75352085  -0.62033007   2.38074022
C    1.70075138  -1.23174098   1.01404965
H    0.89998587  -1.92089431   0.79716282
H    2.63136300  -1.47606148   0.52381761
H    0.98936628  -0.89934735   3.08996908
H    2.71866575  -0.44347663   2.83114158
H    2.07172946   0.94125251   0.85188501
H   -0.23306312   1.57268762   1.66812491
H   -0.75554524  -0.10292125   1.43359465
H    0.36451500   1.54695761  -0.85937509
