23
Energy: 1.142
C   -0.83217242   1.84950558  -0.40663843
H   -1.65465596   1.58195685  -1.06538446
H   -0.33921801   2.73515081  -0.80192298
H   -1.24433253   2.10308043   0.56651149
C    0.16387044   0.70247716  -0.26575452
C    0.94220952   0.41706826  -1.54008572
O    2.11425340   0.13419184  -1.50689492
C    0.16612889   0.46648392  -2.83043836
H    0.76322165   0.04380576  -3.63433143
H   -0.76937102  -0.07847409  -2.73763998
H   -0.06379991   1.50256689  -3.07045164
C   -0.52043892  -0.61347980   0.15952393
C   -1.02974552  -0.56129020   1.58036215
C   -1.04147809  -1.80899891   2.41172367
C   -0.06296117  -0.71581941   2.71510356
H    0.97499302  -0.88702166   2.47331825
H   -0.20926572  -0.12516382   3.60655144
H   -0.66420977  -2.71844087   1.96936582
H   -1.86497223  -1.96817862   3.09123471
H   -1.85406451   0.12500886   1.72973459
H   -1.35048227  -0.82889109  -0.51873281
H    0.20567051  -1.42518648   0.07357576
H    0.89975625   0.95631208   0.50469795
