23
Energy: 1.515
C    1.05777472   0.78068187   1.43033182
H    0.90626651  -0.24585274   1.75236226
H    0.87200068   1.44536881   2.26941496
H    2.09881090   0.89425058   1.13702711
C    0.15521070   1.11091039   0.24158451
C   -1.32492346   0.91353052   0.54260731
O   -2.09064304   0.44008535  -0.25866198
C   -1.78964602   1.38736518   1.89798558
H   -1.37554271   2.36428808   2.13210697
H   -2.87574605   1.43140894   1.91453830
H   -1.45801104   0.68083751   2.65620038
C    0.56574471   0.33641510  -1.02029363
C    0.54225202  -1.16245285  -0.82952757
C    1.26142544  -2.03936791  -1.80937344
C    1.77652662  -1.90119661  -0.40901706
H    2.68576804  -1.33805758  -0.26106432
H    1.67631131  -2.74177659   0.26135723
H    1.81799354  -1.56286434  -2.60237582
H    0.80463419  -2.97199932  -2.10235821
H   -0.40483347  -1.53111577  -0.45619376
H   -0.13031894   0.59807035  -1.82135144
H    1.56699892   0.65004217  -1.32299913
H    0.25675365   2.18312473   0.02144673
