23
Energy: 1.263
C   -2.00734819   0.05420559  -0.51682860
H   -2.02901719   1.02342158  -1.00780719
H   -2.55098618   0.13398286   0.42228766
H   -2.51836516  -0.65934357  -1.15744778
C   -0.55852310  -0.36511203  -0.25527762
C   -0.51623757  -1.69630838   0.48309519
O    0.04371030  -1.83827284   1.54031578
C   -1.22534833  -2.83975719  -0.20236695
H   -0.82479780  -3.78445956   0.15668766
H   -2.28163152  -2.80078352   0.05891237
H   -1.13148986  -2.77907685  -1.28259581
C    0.21315532   0.70918695   0.52266957
C    0.60200571   1.88323217  -0.34250589
C    1.85667248   2.64557437  -0.04246674
C    1.78702643   1.76533015  -1.25344412
H    2.34773029   0.84271795  -1.23739871
H    1.74495632   2.23005794  -2.22702548
H    2.46271071   2.31704193   0.78788444
H    1.85824654   3.71584502  -0.18283997
H   -0.23518357   2.46498448  -0.70980809
H   -0.39504430   1.04867098   1.36436104
H    1.11466744   0.25264159   0.93558873
H   -0.05989755  -0.52190011  -1.21988313
