23
Energy: 0.894
C    2.25849436  -0.01157146  -1.32139673
H    2.89192199   0.87106733  -1.26398160
H    1.74848268   0.00018684  -2.28124559
H    2.89626194  -0.89143784  -1.27443399
C    1.26252317  -0.00681809  -0.16304354
C    0.44454963  -1.28761703  -0.09691452
O    0.30633502  -1.89177235   0.93665832
C   -0.16328590  -1.76753005  -1.39041272
H   -0.53304901  -0.94236939  -1.99123333
H    0.60474922  -2.28898579  -1.95978369
H   -0.96750181  -2.46761475  -1.17895260
C    0.32581741   1.21107654  -0.25187619
C   -0.65534696   1.25777933   0.89541875
C   -1.87640741   2.12200482   0.79998662
C   -2.00863994   0.62953277   0.76198814
H   -2.26921244   0.16892303  -0.17881247
H   -2.42750895   0.12374129   1.61763168
H   -2.03998602   2.66877874  -0.11682136
H   -2.20876394   2.64849311   1.68133008
H   -0.18281224   1.18654966   1.86760521
H    0.94241354   2.11504935  -0.24139511
H   -0.21756996   1.19415685  -1.19904130
H    1.81308399   0.05966301   0.78191823
