23
Energy: 1.004
C    0.20984909   0.16748370  -2.46920151
H    0.56117491  -0.69068524  -3.03765239
H    0.80502323   1.03304124  -2.75137408
H   -0.82521562   0.36455530  -2.73904934
C    0.34941335  -0.09186622  -0.96587647
C   -0.29412850  -1.42744220  -0.62370773
O    0.37512715  -2.39464283  -0.35867502
C   -1.80085589  -1.48571053  -0.65180039
H   -2.20161598  -0.95410060  -1.50953094
H   -2.12418399  -2.52332558  -0.67402698
H   -2.19129259  -1.02200814   0.25224179
C   -0.22622385   1.07136215  -0.14883396
C    0.04675551   0.90132060   1.32740653
C    1.34859655   1.37578651   1.89834708
C    0.07835004   2.10087204   2.22524164
H   -0.08105203   3.07134600   1.77971373
H   -0.32450372   2.01195273   3.22250018
H    2.04887273   1.85759825   1.23280991
H    1.82025992   0.78757072   2.67004032
H   -0.35863571  -0.01226005   1.74657274
H    0.23788113   1.99846988  -0.49310677
H   -1.30118338   1.15685334  -0.32534909
H    1.41466224  -0.19097833  -0.72990039
