23
Energy: 1.563
C    0.18663158  -1.78191227  -1.87449959
H   -0.14380755  -2.78783672  -1.62531202
H    1.27395624  -1.76758789  -1.85876696
H   -0.14905983  -1.54929288  -2.88248490
C   -0.39672083  -0.78064632  -0.87269130
C   -0.09365867   0.63535316  -1.33997592
O   -0.96132296   1.33958561  -1.79301270
C    1.33211572   1.10450625  -1.22221969
H    1.46992155   1.51335661  -0.22310223
H    2.04104690   0.29635767  -1.36949395
H    1.51514517   1.89978948  -1.94040727
C    0.10308287  -1.06849178   0.54794977
C   -0.48519060  -0.11622753   1.56771878
C   -0.15741443  -0.28586149   3.02097346
C    0.37094839   0.89618192   2.26695785
H    1.42950625   0.91248003   2.05154973
H   -0.04310382   1.87086293   2.47583459
H    0.54140112  -1.06274755   3.29291589
H   -0.93587313  -0.12876810   3.75142436
H   -1.49901758   0.18812405   1.33637555
H   -0.19153404  -2.09208924   0.80048354
H    1.19323400  -1.02525797   0.58279222
H   -1.48782151  -0.88294812  -0.88597426
