23
Energy: 1.471
C   -0.51625388  -0.95000852  -2.09823423
H    0.14157829  -1.08133009  -2.95453499
H   -1.54003377  -0.86533306  -2.45467200
H   -0.42791284  -1.83276962  -1.47176576
C   -0.11312049   0.29613271  -1.31395234
C    1.24430648   0.09608557  -0.65405638
O    1.68214525  -0.98898734  -0.37285459
C    2.01406298   1.36954761  -0.39946454
H    2.80646002   1.19239468   0.32297948
H    2.46607474   1.68701163  -1.33851026
H    1.36014799   2.16528518  -0.05421815
C   -1.15538935   0.65722859  -0.23340914
C   -1.22103308  -0.34121307   0.89756123
C   -0.34530510  -0.17357859   2.10113837
C   -1.81999000   0.06985511   2.20942609
H   -2.15918111   1.08965272   2.31593773
H   -2.42375516  -0.64356957   2.74894982
H    0.31272539   0.68138456   2.13972853
H    0.07101562  -1.05570543   2.56151871
H   -1.41495150  -1.35616033   0.57707183
H   -0.92404209   1.64302431   0.17690740
H   -2.13431541   0.72360483  -0.71756935
H   -0.04253647   1.14824089  -1.99891928
