23
Energy: 1.043
C    1.68461165   0.48234436   0.97522213
H    2.67435601   0.81975768   0.67492109
H    1.76404629  -0.01678283   1.93764892
H    1.04306071   1.35214936   1.07870344
C    1.11137806  -0.46659925  -0.07324926
C    0.88021629   0.25898054  -1.38972694
O    0.55010188   1.41587032  -1.45061977
C    1.08333704  -0.59038986  -2.61982900
H    0.69788322  -0.08141879  -3.49928068
H    2.15062878  -0.76267590  -2.75094016
H    0.59760120  -1.55599292  -2.50411855
C   -0.22833231  -1.07905376   0.38940842
C   -1.27569252  -0.04342777   0.72556629
C   -2.50865201  -0.46669071   1.46648255
C   -1.48370155   0.38973108   2.14494987
H   -0.87505667  -0.06431478   2.91239719
H   -1.72401137   1.42363318   2.33956541
H   -2.58725915  -1.49996646   1.77060803
H   -3.45401931  -0.02367296   1.19361050
H   -1.40230201   0.71314618  -0.03843932
H   -0.60962108  -1.73402648  -0.40076827
H   -0.03782485  -1.69897340   1.26861790
H    1.81096355  -1.29108730  -0.24668753
