23
Energy: 1.117
C    0.28140390   1.61199694  -1.33532803
H    1.13100921   2.29080946  -1.37020863
H   -0.61241486   2.19012845  -1.11947713
H    0.17750493   1.14607226  -2.31202168
C    0.50789939   0.54016574  -0.27281507
C    1.71799603  -0.30901131  -0.63341253
O    1.97411816  -0.62628719  -1.76648423
C    2.55697571  -0.74240810   0.54298054
H    1.92626383  -1.11124615   1.34794392
H    3.26611470  -1.50916987   0.24257485
H    3.10578814   0.12196758   0.91396689
C   -0.69434610  -0.42064840  -0.16291235
C   -1.88903785   0.22589950   0.49590739
C   -2.84281444  -0.61221776   1.29261280
C   -1.93075596   0.35149635   1.98921776
H   -1.10686663  -0.05472243   2.55692898
H   -2.35679923   1.24228490   2.42485661
H   -2.63532511  -1.66728184   1.38821651
H   -3.89616017  -0.38244431   1.24449816
H   -2.32291938   1.03857267  -0.07248736
H   -0.95903589  -0.76567996  -1.16495273
H   -0.40076354  -1.29559364   0.42274339
H    0.66799660   1.00835751   0.70289613
