23
Energy: 1.154
C   -0.73027334  -1.81163787  -0.42829050
H   -0.61327115  -2.72787434   0.14696185
H   -0.29191891  -1.96801682  -1.40992946
H   -1.79290946  -1.61152636  -0.54490086
C   -0.04958905  -0.63449154   0.27924842
C   -0.65505796  -0.53600956   1.67216737
O   -1.65826121   0.08932045   1.90173352
C    0.09382909  -1.29373471   2.73998168
H    0.35429548  -2.28991068   2.39172607
H    1.01791948  -0.76099464   2.95962795
H   -0.50069308  -1.35814737   3.64737769
C   -0.25675438   0.68480180  -0.47852825
C    0.46057548   0.71643720  -1.80606039
C    0.99906368   2.01298401  -2.33077561
C    1.94058195   0.95515797  -1.84070715
H    2.44834941   1.12867846  -0.90368552
H    2.53822965   0.42097011  -2.56375602
H    0.87150870   2.89799266  -1.72619344
H    0.94513139   2.20319661  -3.39186636
H    0.06148116   0.03165477  -2.54391671
H   -1.32728258   0.84214020  -0.62503602
H    0.11215159   1.50168265   0.14630291
H    1.02158872  -0.84203084   0.36242225
