20
Energy: 0.0
O    1.06084451  -1.38082824   0.99744075
H    0.50941639  -1.79921635   1.66803361
C    1.35325099  -0.06204476   1.40411633
C    0.12725879   0.83534755   1.60229106
C   -0.76122202   1.07893485   0.37829596
H   -1.43840867   1.89821580   0.63202407
C   -1.51037727  -0.14297483  -0.19118293
H   -2.57905648   0.01773818  -0.31592524
H   -1.35769460  -1.08108481   0.33700172
C   -0.70444731  -0.03047967  -1.50378106
O    0.17601698  -1.07744939  -1.76707422
H    0.64676980  -1.28512198  -0.94304174
C   -0.06941195   1.28153420  -0.98398010
H   -0.40622470   2.16883029  -1.51476736
H    1.01717521   1.27383229  -0.97619119
H   -1.30771534   0.08502300  -2.40703507
H   -0.49843862   0.40872850   2.39316664
H    0.49920718   1.79819839   1.96052375
H    2.00748815   0.33905535   0.62827739
H    1.92281832  -0.07918892   2.34466015
