20
Energy: 2.807
O   -2.03825997  -1.35711197  -0.43602460
H   -2.81605459  -0.97783970  -0.85997627
C   -0.92569012  -1.17667001  -1.28474920
C   -0.66420863   0.28962276  -1.64670597
C    0.06035656   1.09869966  -0.57224899
H    0.00760673   2.15627615  -0.84174096
C    1.50542816   0.67777138  -0.24648320
H    2.28336573   1.38195863  -0.53059163
H    1.76615375  -0.31112198  -0.61382880
C    1.15494343   0.63629745   1.24857241
O    1.48274452  -0.59113092   1.84492512
H    1.00543112  -0.67278574   2.67724600
C   -0.32975747   0.86433158   0.90029839
H   -0.80874612   1.70313123   1.40178414
H   -0.92642860  -0.03294214   1.04204794
H    1.59364309   1.46638136   1.82092867
H   -0.06166621   0.32052229  -2.55744577
H   -1.62440405   0.76631541  -1.86875641
H   -1.06809359  -1.75517826  -2.20951454
H   -0.07881666  -1.60023681  -0.74237252
