20
Energy: 1.901
O    0.55226477  -1.14208888  -2.93699249
H    1.30215391  -1.21769185  -2.33729226
C   -0.61526981  -0.95016197  -2.17430717
C   -0.59083455   0.32994660  -1.33250358
C    0.41407847   0.26335143  -0.19082085
H    1.42421890   0.12058185  -0.58270876
C    0.10701209  -0.71908380   0.95550435
H    0.73011760  -1.60660803   1.03218134
H   -0.94136259  -1.00527977   0.99168741
C    0.38853044   0.39715312   1.97142402
O   -0.60977466   0.52061176   2.94758718
H   -0.45789244   1.32400958   3.45617209
C    0.37919091   1.42518366   0.82018050
H    1.20953022   2.12744530   0.78810214
H   -0.56181995   1.97105539   0.78481223
H    1.37803145   0.30480056   2.44026428
H   -0.34556127   1.17362896  -1.98166946
H   -1.59015028   0.49025754  -0.92430222
H   -0.79345351  -1.81620770  -1.52105248
H   -1.42651476  -0.89527878  -2.90398857
