20
Energy: 1.491
O    2.75130737  -0.83102018   1.18003713
H    3.43588038  -1.50389934   1.11646077
C    2.44872238  -0.35308116  -0.11347121
C    1.33614022   0.68590731  -0.00142599
C    0.02992986   0.05710270   0.45992994
H    0.21147842  -0.48303488   1.38882867
C   -0.73556054  -0.80315396  -0.56357601
H   -0.74107002  -1.87749514  -0.39829579
H   -0.42909648  -0.60341250  -1.59066772
C   -2.03018722  -0.04885755  -0.19712264
O   -2.84878606   0.39881986  -1.23721529
H   -2.31598205   0.92927018  -1.84137318
C   -1.18763106   0.99306000   0.56629606
H   -1.52401439   1.24929476   1.56744473
H   -1.05871483   1.90982430  -0.00900783
H   -2.68586638  -0.62586639   0.45686225
H    1.64399191   1.44204088   0.72284593
H    1.20471289   1.16730665  -0.97291556
H    2.11868133  -1.17847388  -0.76042009
H    3.33889154   0.10760953  -0.56715318
