20
Energy: 1.476
O   -0.99694894   1.25004561  -1.15643064
H   -1.61266903   1.36710914  -1.88672775
C    0.28802329   0.95061947  -1.67575359
C    1.35832250   1.02835541  -0.58636497
C    1.24683147   0.04517346   0.58174468
H    2.19636052   0.08012479   1.12117613
C    0.78759870  -1.39401393   0.27841703
H    1.43141471  -2.15582926   0.71180690
H    0.62116457  -1.63607846  -0.76810504
C   -0.51053997  -1.14866976   1.08477812
O   -1.68886897  -1.12044343   0.33761663
H   -1.62444943  -0.34471574  -0.24400812
C    0.03058422   0.23172070   1.50981670
H    0.28489646   0.30419521   2.56476038
H   -0.62277387   1.05805479   1.24060811
H   -0.68259606  -1.85868760   1.89676050
H    2.31864716   0.87571827  -1.08524257
H    1.34921169   2.03933655  -0.17279482
H    0.55121751   1.67760272  -2.45610669
H    0.28052071  -0.04620553  -2.13677391
