20
Energy: 1.371
O   -1.70579932   0.32756766  -1.09703803
H   -1.02060020  -0.35477156  -1.19269029
C   -1.82456583   0.66084672   0.25814876
C   -0.65081320   1.46479906   0.84150913
C    0.71947093   0.78507541   0.87396796
H    1.36888652   1.38571511   1.51509109
C    1.36449889   0.48350197  -0.49475290
H    2.37906503   0.85973267  -0.60141004
H    0.78030392   0.78579812  -1.35918991
C    1.29716329  -1.02254307  -0.19850321
O    0.37280394  -1.66954949  -1.04440732
H    0.22984438  -2.57035021  -0.73512584
C    0.77721315  -0.71732031   1.22115436
H    1.48737663  -0.95994536   2.00869604
H   -0.17858800  -1.18109380   1.45473982
H    2.26120864  -1.54595189  -0.23000724
H   -0.54844741   2.38628946   0.26393689
H   -0.93109885   1.73706172   1.86221318
H   -2.00162278  -0.23858917   0.86594313
H   -2.72204423   1.28395091   0.33079326
