20
Energy: 1.503
O   -0.79067400   0.56546798   3.36528448
H   -0.30668236   0.82057184   4.15686801
C    0.12421914   0.14604395   2.37543291
C   -0.66643302  -0.26913228   1.13834085
C    0.24250776  -0.69560777  -0.00272364
H    0.89958120  -1.50019103   0.33294109
C    1.03240164   0.41404708  -0.72342064
H    2.10578367   0.44299904  -0.55381900
H    0.61760910   1.40514320  -0.54259476
C    0.56850904  -0.16062716  -2.07823197
O    0.08601371   0.72890081  -3.03961478
H   -0.61354303   1.26190667  -2.64332243
C   -0.44919975  -1.04880961  -1.33290848
H   -0.46972142  -2.09938660  -1.61056277
H   -1.45995887  -0.64704516  -1.39423521
H    1.34554201  -0.73684067  -2.58324396
H   -1.33080647  -1.09137539   1.41070739
H   -1.29009392   0.57327507   0.83337834
H    0.72113292  -0.70420313   2.73678816
H    0.81371341   0.96317108   2.11770695
