20
Energy: 1.837
O    1.81735502  -2.47604613   1.79858899
H    1.21623250  -3.12149415   1.40999332
C    1.28101302  -1.18839531   1.60791345
C    1.01798308  -0.86755811   0.13508880
C    0.48955926   0.54551980  -0.05070083
H    1.19500919   1.25990994   0.37775828
C   -0.95029805   0.82424229   0.42148820
H   -1.06420340   1.43648999   1.31342400
H   -1.53423216  -0.08839385   0.52750736
C   -1.23786516   1.51283950  -0.92980704
O   -2.36755955   1.08041039  -1.63911470
H   -3.16136430   1.36262965  -1.17277312
C    0.07785235   0.94461758  -1.48001359
H    0.72477889   1.64312899  -2.00336480
H   -0.11768271   0.08452728  -2.11556231
H   -1.22645703   2.60829606  -0.85082502
H    1.94919742  -0.98494815  -0.42395108
H    0.29285868  -1.58201776  -0.26602691
H    2.02592420  -0.50126070   2.01596973
H    0.35133994  -1.07047285   2.18411540
