20
Energy: 1.789
O    2.46499035  -1.34289081  -0.47048842
H    1.66977452  -1.47685876  -0.99713363
C    2.58389270   0.03042942  -0.18996700
C    1.37184247   0.61216170   0.54345377
C    0.12106160   0.67574413  -0.32408545
H    0.35782855   1.15679000  -1.27666368
C   -1.12111392   1.31067968   0.32864796
H   -1.40629240   2.30243372  -0.01148161
H   -1.07240095   1.29802103   1.41456771
C   -1.97458966   0.14032921  -0.17958240
O   -2.79794163  -0.41481969   0.80898958
H   -3.19925443  -1.22293460   0.47262126
C   -0.68121480  -0.62550339  -0.53270765
H   -0.64883568  -1.07536320  -1.52470619
H   -0.45561214  -1.37629372   0.22326254
H   -2.56122263   0.39959251  -1.07174486
H    1.17181543   0.00874083   1.43087181
H    1.62369718   1.62357442   0.86921987
H    2.75787210   0.59678480  -1.11786300
H    3.47428847   0.11955852   0.43712085
