20
Energy: 1.75
O   -0.89399298   0.74891708   2.40302314
H   -1.56810844   1.07895855   3.00469388
C   -0.31291986   1.83583085   1.71398416
C    0.68702851   1.29804296   0.69244767
C    0.01285529   0.69794280  -0.53353743
H   -0.57893575   1.46634322  -1.03511117
C   -0.79169400  -0.59917666  -0.32934163
H   -1.87087931  -0.51963928  -0.42923160
H   -0.56316963  -1.08078384   0.61911274
C   -0.04174330  -1.23828175  -1.51407552
O    0.49280780  -2.51739007  -1.33868515
H    0.99639254  -2.52669856  -0.51605333
C    0.93585695  -0.04350203  -1.51915050
H    1.10691543   0.43503438  -2.48030921
H    1.89773650  -0.30292440  -1.07839225
H   -0.64324769  -1.30026742  -2.42273101
H    1.34160571   2.11369385   0.37793067
H    1.29464311   0.53982981   1.18940202
H    0.20916153   2.49403096   2.42506078
H   -1.08561665   2.42707912   1.20255280
