20
Energy: 0.077
O   -2.59687425   1.42964157   1.02662164
H   -3.11853530   1.56551307   0.22744205
C   -1.30734930   1.95181920   0.81789929
C   -0.59735092   1.32569530  -0.38521267
C   -0.37931274  -0.16752827  -0.18827718
H   -1.32971284  -0.63558411   0.07198905
C    0.73855929  -0.58956970   0.78338234
H    0.42660601  -1.01199352   1.73459866
H    1.45631593   0.20974093   0.96812585
C    1.25254534  -1.58728701  -0.27502955
O    2.62491205  -1.63042399  -0.53024353
H    2.93201259  -0.73610299  -0.72037213
C    0.33841785  -0.91997410  -1.32351088
H   -0.26759700  -1.58604179  -1.93251503
H    0.89586209  -0.25045844  -1.97863806
H    0.96714255  -2.61820118  -0.05999965
H   -1.20159366   1.48582165  -1.28395657
H    0.35945640   1.83171596  -0.53008674
H   -0.75482456   1.73189815   1.73387739
H   -1.35253447   3.04414081   0.69156086
