20
Energy: 0.948
O   -0.00496647  -1.50682986   1.28912888
H   -0.72187499  -1.15561107   0.73335554
C    0.71540679  -0.42533837   1.81500877
C    1.62663593   0.29885755   0.80952726
C    0.95676313   0.87181896  -0.44105419
H    1.65381602   1.57780467  -0.89806089
C   -0.46467092   1.45736687  -0.31129144
H   -0.56718465   2.47482282  -0.67981215
H   -0.91159551   1.39446333   0.67643799
C   -0.99991412   0.38513616  -1.27214715
O   -1.89423102  -0.48830827  -0.61664558
H   -2.09932296  -1.22929665  -1.19703194
C    0.42958885  -0.16205015  -1.45878114
H    0.82281550  -0.04271266  -2.46634879
H    0.55153419  -1.19712704  -1.14670961
H   -1.46272699   0.77675750  -2.18645407
H    2.11786647   1.10834691   1.35448184
H    2.39927590  -0.39862926   0.47730299
H    1.35074997  -0.84369679   2.60242129
H    0.03700403   0.29788642   2.28887761
