20
Energy: 3.079
O   -2.86286939  -0.72770156  -0.95646712
H   -3.79192551  -0.50723408  -0.83928329
C   -2.12795784   0.46008181  -1.16749197
C   -0.65459782   0.10108595  -1.33983508
C   -0.06165542  -0.46730873  -0.06002911
H   -0.66489781  -1.31649522   0.26140026
C    0.19669185   0.52216443   1.09222771
H   -0.45510738   0.44734142   1.96027905
H    0.23287873   1.55514297   0.74903867
C    1.61536870  -0.06395185   1.24747297
O    2.68632676   0.84326754   1.24625908
H    2.65278053   1.37105191   2.05095566
C    1.44037894  -0.80114726  -0.08719411
H    1.71332691  -1.85274180  -0.09732994
H    1.97037183  -0.27982191  -0.88063096
H    1.69244237  -0.74873593   2.10308492
H   -0.57230928  -0.64440508  -2.13246756
H   -0.10563195   0.99450608  -1.64251398
H   -2.24497870   1.13959731  -0.31101661
H   -2.48931479   0.97549986  -2.06965598
