20
Energy: 1.758
O   -0.72551125   0.93346647   3.33239152
H   -0.38015228   1.83126873   3.39249700
C    0.01856273   0.22713169   2.36865730
C    0.00780791   0.90465568   0.99677270
C    0.73197830   0.07279418  -0.04922072
H    1.75234637  -0.12936001   0.28383291
C    0.70363935   0.60515848  -1.49392985
H    1.62977492   1.01407443  -1.88873410
H   -0.10703431   1.30919693  -1.66402922
C    0.30813454  -0.79338506  -1.98837408
O   -0.78165712  -0.78174538  -2.86999895
H   -1.07992922  -1.68564030  -3.01589799
C    0.03084057  -1.21191690  -0.52879442
H    0.46146771  -2.15659046  -0.20387673
H   -1.03569914  -1.20176919  -0.31232750
H    1.15319533  -1.34244522  -2.42613749
H   -1.02819308   1.06292402   0.68997437
H    0.48981096   1.88453954   1.07336609
H   -0.44994263  -0.75735764   2.30483253
H    1.05731592   0.09322324   2.70737928
