20
Energy: 0.155
O   -0.51696038  -0.92426670   2.63506904
H   -0.14916508  -1.48927761   1.94695061
C   -1.54764482  -0.15005050   2.07325240
C   -1.07852681   0.75084039   0.92644928
C   -0.69082795  -0.02757216  -0.32493180
H   -1.49661196  -0.71565889  -0.59132423
C    0.68158804  -0.73216917  -0.34298841
H    0.68271995  -1.81959314  -0.29413627
H    1.36585596  -0.33741764   0.40818187
C    0.95501375  -0.12034067  -1.73342856
O    2.20448651   0.45436334  -1.96661090
H    2.38148608   1.10487079  -1.27662970
C   -0.25528540   0.81618021  -1.53844822
H   -0.95623103   0.88365239  -2.36636906
H    0.05355824   1.82149050  -1.25345849
H    0.81029201  -0.83506634  -2.54535098
H   -1.89171916   1.43556980   0.67605496
H   -0.22929218   1.34397476   1.27277628
H   -1.92535965   0.46459713   2.89404906
H   -2.36605350  -0.79591625   1.72113288
