20
Energy: 2.707
O   -1.80706778  -2.08060116  -0.35109366
H   -2.01197983  -1.24011417  -0.77595990
C   -0.49825148  -2.02402580   0.16741390
C    0.52759664  -1.50155734  -0.84405011
C    0.75527612   0.00996310  -0.83408564
H    1.29871481   0.27741072  -1.74318802
C    1.45823519   0.62095806   0.39291216
H    2.51586153   0.84972748   0.28977306
H    1.31190909   0.02932652   1.29605470
C    0.47813928   1.80968404   0.32537948
O   -0.07464661   2.28685298   1.51392087
H   -0.45905478   1.54733482   1.99989737
C   -0.42078052   0.98458641  -0.62008453
H   -0.80609245   1.49242920  -1.50131110
H   -1.25242648   0.55149771  -0.06646605
H    0.91172355   2.68349902  -0.16345006
H    1.49081284  -1.97854694  -0.65173257
H    0.19842448  -1.81585843  -1.83758592
H   -0.26135017  -3.05464298   0.44135108
H   -0.47754995  -1.41974892   1.08664088
