20
Energy: 1.472
O    1.81638383   1.95039004  -1.65563948
H    2.59029044   1.41262674  -1.85855308
C    0.66359264   1.24202672  -2.04442772
C    0.55600722  -0.13301900  -1.38106408
C    0.44251360  -0.01722015   0.13154296
H    1.26065651   0.59912612   0.50800577
C    0.30405349  -1.33289656   0.91787642
H    1.16211442  -1.65315414   1.50296429
H   -0.04166549  -2.15643088   0.29758778
C   -0.86779947  -0.72562643   1.70159251
O   -1.99048677  -1.56504997   1.75992966
H   -2.73239368  -1.07307581   2.12700141
C   -0.91422414   0.44381244   0.69577945
H   -0.95310787   1.44544171   1.11779748
H   -1.72424196   0.31631393  -0.02061395
H   -0.57866573  -0.39815346   2.70957607
H   -0.31699572  -0.65135158  -1.78120273
H    1.44272483  -0.72432531  -1.63069889
H    0.63751633   1.12716325  -3.13859225
H   -0.17693339   1.87053054  -1.74259595
