20
Energy: 1.69
O    0.16090104  -0.96255439   2.67014421
H   -0.56380342  -1.14195364   2.06140523
C    0.57127826   0.37041701   2.49342962
C    0.98318373   0.69854129   1.05529731
C   -0.19638869   0.74046713   0.09224888
H   -0.97785611   1.38888046   0.49675922
C   -0.77601833  -0.60052152  -0.40210700
H   -1.75622807  -0.89033729  -0.02867957
H   -0.07792561  -1.42786424  -0.29389249
C   -0.73865390  -0.07047364  -1.84281634
O   -0.16139333  -0.97069173  -2.74840621
H   -0.02318442  -0.52759830  -3.59198806
C    0.13383361   1.10993526  -1.36653831
H   -0.16248322   2.10212327  -1.70023713
H    1.18353876   0.94356619  -1.60145024
H   -1.72486723   0.25799245  -2.19906944
H    1.47219236   1.67527625   1.05425395
H    1.70658309  -0.04600681   0.71739945
H    1.42628081   0.49867386   3.16190746
H   -0.22314094   1.06213749   2.81420801
