20
Energy: 0.781
O    1.22081137   1.02498671   1.73994148
H    1.15035560   1.98110421   1.83774299
C   -0.04452396   0.45115133   1.97870833
C   -1.15327853   0.96336575   1.05338453
C   -1.09189867   0.48857241  -0.39851805
H   -1.90957232   0.97067922  -0.93979881
C   -1.07703013  -1.03001160  -0.65673600
H   -1.96431926  -1.43297795  -1.13912673
H   -0.86042296  -1.62907647   0.22521874
C    0.15811758  -0.85501090  -1.56891786
O    1.27083742  -1.65456070  -1.29850591
H    1.57367047  -1.45678750  -0.40345464
C    0.24332471   0.62723836  -1.15557695
H    0.25430318   1.34811364  -1.96978026
H    1.09021679   0.81607328  -0.49997552
H   -0.06117523  -1.00893294  -2.62702234
H   -2.11031807   0.64656562   1.47485975
H   -1.13264691   2.05778527   1.06350940
H   -0.34538442   0.63547520   3.02076526
H    0.09979642  -0.62417985   1.85942360
