20
Energy: 1.99
O   -3.15970179  -0.29420680  -0.51032726
H   -2.61845920  -0.91042815  -1.01545231
C   -2.38513485   0.22542700   0.54380913
C   -1.12959255   0.96568230   0.07123643
C   -0.07736341   0.02981269  -0.50723216
H   -0.48212644  -0.51351794  -1.36482612
C    0.63246709  -0.91937531   0.47771529
H    0.38660310  -1.97750992   0.40894114
H    0.53432082  -0.58727674   1.50986106
C    1.98969692  -0.48974693  -0.11924416
O    2.97363922  -0.05340247   0.77851022
H    3.27801762  -0.80082882   1.30381099
C    1.28463847   0.66043460  -0.85211629
H    1.52155580   0.77968383  -1.90583984
H    1.45328517   1.60040727  -0.33278146
H    2.39974906  -1.24257225  -0.80658689
H   -1.41733001   1.69776878  -0.68651828
H   -0.70542508   1.50281372   0.92119999
H   -2.10007327  -0.57649428   1.24045072
H   -3.04693817   0.91835378   1.06850766
