20
Energy: 2.949
O   -3.00568056  -0.56459118   0.53927889
H   -3.88822440  -0.27616323   0.28755577
C   -2.23094646   0.56503128   0.88567118
C   -0.82193952   0.10122265   1.24394312
C   -0.09696192  -0.46737873   0.03403729
H   -0.70467948  -1.26131599  -0.40032027
C    1.36169878  -0.90883332   0.25096842
H    1.55543540  -1.97932410   0.24899110
H    1.79765077  -0.46062039   1.14229694
C    1.76358277  -0.13324963  -1.02047431
O    2.82434338   0.77869331  -0.90613564
H    3.63919062   0.29334641  -0.73979558
C    0.38316875   0.53764053  -1.02973403
H   -0.14177719   0.54135021  -1.98122298
H    0.45402216   1.55346445  -0.64757750
H    1.91865891  -0.79668507  -1.88242483
H   -0.26452084   0.94661323   1.65111826
H   -0.89842028  -0.67077171   2.01173932
H   -2.67916583   1.08288076   1.74659812
H   -2.18303911   1.26997002   0.04388328
