20
Energy: 3.175
O   -0.14772273   0.93440408   3.37429299
H   -0.47843746   1.69817825   3.85729327
C   -0.02122485   1.26794036   2.00815605
C    0.47802955   0.03720723   1.25746906
C    0.63246526   0.30292767  -0.23039878
H    1.30654110   1.14792784  -0.38679135
C   -0.65968181   0.45256926  -1.05554888
H   -0.90746776   1.44816439  -1.41395353
H   -1.52384501   0.01618541  -0.56111371
C   -0.09390996  -0.52470845  -2.09555971
O   -0.99654340  -1.53428916  -2.45848276
H   -0.53237528  -2.20309628  -2.97279331
C    1.02701614  -0.90217390  -1.10454461
H    2.04158655  -0.91195175  -1.49719710
H    0.81659193  -1.84953359  -0.61199334
H    0.29406229  -0.01541029  -2.98872490
H    1.43718824  -0.26345252   1.68358128
H   -0.22987849  -0.77653054   1.42153447
H    0.69166175   2.09635508   1.87970126
H   -0.99058584   1.58328402   1.59654141
