20
Energy: 0.843
O    0.45625839  -2.50314729   1.15161650
H    0.03952387  -2.82972074   0.34659268
C    1.65012722  -1.84478701   0.80766970
C    1.45613577  -0.70446140  -0.19545244
C    0.52191088   0.37779350   0.32796594
H    0.82472885   0.65601466   1.33835390
C   -0.99497474   0.12019085   0.25809233
H   -1.49550255  -0.11889953   1.19175046
H   -1.25668182  -0.63262105  -0.48551972
C   -1.18574734   1.54554940  -0.29831853
O   -2.05271431   1.72651550  -1.37828704
H   -1.79913788   1.12002353  -2.08404083
C    0.33289681   1.62258454  -0.55873304
H    0.83858305   2.53259285  -0.24615231
H    0.57209248   1.42560655  -1.60387968
H   -1.51897241   2.25452605   0.46101410
H    2.43409625  -0.26452903  -0.40346601
H    1.06482075  -1.10932835  -1.13402422
H    2.37980937  -2.56323095   0.40282583
H    2.04261451  -1.45176426   1.74839680
