20
Energy: 2.775
O   -1.29921357  -0.63194544   1.93279297
H   -2.13480306  -0.22819601   2.19239701
C   -0.33794174   0.38791069   1.75694340
C   -0.73540278   1.41890031   0.69271420
C   -0.41431855   1.00366855  -0.74235487
H   -0.91273939   1.69584295  -1.42480845
C   -0.65278365  -0.47588306  -1.10459008
H   -1.29358861  -0.63280446  -1.96981735
H   -1.00854348  -1.08165832  -0.27505546
C    0.85274295  -0.64978429  -1.38875096
O    1.55126692  -1.48741224  -0.50366128
H    1.12798265  -2.35242277  -0.49094348
C    1.08299158   0.83488491  -1.06350839
H    1.44086922   1.42970768  -1.89996118
H    1.74784074   0.97258063  -0.21493299
H    1.08182574  -0.92732584  -2.42782679
H   -1.80971164   1.61048314   0.77994806
H   -0.21478175   2.35667128   0.89972362
H    0.58003994  -0.12860986   1.47217672
H   -0.16595764   0.90153719   2.71385365
