20
Energy: 0.469
O    0.38019668  -0.26341519  -3.54342554
H    1.27861673  -0.57495473  -3.38670650
C   -0.11372218   0.31450865  -2.35879134
C   -0.10815756  -0.65803442  -1.17704123
C   -0.71008430  -0.03174462   0.07101171
H   -1.71944596   0.31915071  -0.14960842
C    0.11694431   1.05431879   0.78544031
H   -0.23370914   2.07901809   0.69531646
H    1.17344814   1.01678095   0.52060934
C   -0.15695847   0.34818204   2.12993153
O    0.91008545   0.16906062   3.01151262
H    1.62829294  -0.27336648   2.54377766
C   -0.67943068  -0.88025381   1.35644181
H   -1.62470963  -1.29947263   1.69069123
H    0.06378641  -1.67600695   1.31165798
H   -0.93471948   0.84126199   2.71504339
H   -0.67987170  -1.54798611  -1.45056654
H    0.92127132  -0.97076412  -0.97393356
H   -1.13744531   0.61751867  -2.58970943
H    0.46215552   1.21510482  -2.09980699
