20
Energy: 0.459
O    1.77214228  -0.12383381  -2.67847649
H    1.86514476   0.69816880  -2.18501928
C    1.22830599  -1.10309952  -1.82765900
C   -0.16182137  -0.74188266  -1.29258594
C   -0.12498191   0.40016109  -0.28593274
H    0.29711744   1.29556125  -0.74790551
C    0.52648699   0.11121913   1.08052056
H    1.49196647   0.57141898   1.27664853
H    0.59303466  -0.95591928   1.29165182
C   -0.69234227   0.75514200   1.77445860
O   -1.25796755   0.09154977   2.86364023
H   -1.46560296  -0.81345803   2.60250028
C   -1.44888046   0.72898690   0.43003157
H   -1.95075909   1.64754968   0.13721293
H   -2.16159824  -0.09385363   0.38243480
H   -0.49144281   1.76818108   2.12715338
H   -0.79953175  -0.46136090  -2.13381199
H   -0.58921806  -1.63025675  -0.82299568
H    1.90732699  -1.30022054  -0.98538953
H    1.16437848  -2.00714265  -2.43783946
