20
Energy: 2.055
O   -0.86108199  -0.74055658   2.53666072
H   -0.75187093   0.19771838   2.72731911
C    0.39742484  -1.28053939   2.21470148
C    1.09751151  -0.56001434   1.05968514
C    0.31492382  -0.64341690  -0.24274707
H    0.05922914  -1.68495474  -0.44526323
C    0.94817740   0.02748479  -1.47529557
H    1.38508049  -0.62524767  -2.22627013
H    1.66237712   0.80242607  -1.20720845
C   -0.41275530   0.65197277  -1.81351342
O   -0.33934782   2.01977845  -2.11895423
H   -1.23181790   2.37545839  -2.18344451
C   -0.91405648   0.27014902  -0.40576023
H   -1.88934568  -0.20472075  -0.33665263
H   -0.88083151   1.12989305   0.26099578
H   -0.94090468   0.10673343  -2.60733946
H    1.25231760   0.48958661   1.32594909
H    2.07898524  -1.01737256   0.91651894
H    0.20355085  -2.32152052   1.94549985
H    1.05313522  -1.26956456   3.09926328
