20
Energy: 0.205
O    3.30957066   1.06870924   0.64454616
H    3.21800676   1.72645274   1.34303641
C    2.25298429   0.14495668   0.75024049
C    0.87681506   0.80567960   0.64250252
C   -0.24456576  -0.22123596   0.65848478
H   -0.17258318  -0.82574632   1.56471148
C   -0.40605692  -1.10211645  -0.59473367
H   -0.12381029  -2.14730770  -0.49976612
H    0.08966859  -0.67894275  -1.46769038
C   -1.91846938  -0.79638362  -0.59185591
O   -2.52229634  -0.44489274  -1.79975159
H   -2.02093094   0.27654289  -2.19808811
C   -1.67344186   0.31547571   0.44985143
H   -2.32762897   0.31899941   1.31789763
H   -1.68381251   1.30563660  -0.00484434
H   -2.51716309  -1.61975772  -0.19906781
H    0.74174508   1.49940221   1.47855250
H    0.84039875   1.38589541  -0.28261445
H    2.32189934  -0.41441446   1.69513391
H    2.39731655  -0.55670534  -0.07412019
