20
Energy: 1.771
O   -1.52965324  -2.83351463  -0.55388085
H   -1.58815589  -2.97817307  -1.50489384
C   -0.67797457  -1.73784276  -0.31267228
C   -1.14893919  -0.47708136  -1.04262808
C   -0.41242148   0.81112138  -0.68692013
H   -0.79693947   1.60254117  -1.33445811
C    1.12885219   0.82221366  -0.68316603
H    1.60861135   1.34316689  -1.50813981
H    1.57022625  -0.16738944  -0.58852542
C    1.10047585   1.56477342   0.66946554
O    1.93397705   1.09896594   1.68752092
H    1.76805770   0.15766150   1.81728425
C   -0.41102661   1.27581905   0.78191481
H   -1.04664029   2.12571489   1.01762604
H   -0.62154630   0.47570990   1.48854099
H    1.32594932   2.62841301   0.57697491
H   -1.05471862  -0.64590553  -2.12036615
H   -2.21020499  -0.33862626  -0.81897860
H    0.35008746  -1.99287119  -0.60781884
H   -0.70556164  -1.59624513   0.76950610
