20
Energy: 2.055
O    1.97228290  -1.19224878   1.54374024
H    1.25968416  -1.82897428   1.66754761
C    1.56451640   0.04611707   2.06994702
C    0.22856608   0.54168738   1.51092249
C    0.25192422   0.69337294  -0.00338159
H    1.14085933   1.25356194  -0.29803368
C   -1.01680656   1.26839969  -0.65986643
H   -0.96206484   2.29346995  -1.02057744
H   -1.89443605   1.15073367  -0.02625631
C   -0.94416635   0.15162069  -1.72272108
O   -2.11075154  -0.59510129  -1.94675470
H   -2.76525876  -0.03644898  -2.37879544
C    0.08870783  -0.57939110  -0.85462383
H    0.97585540  -0.95471397  -1.35551320
H   -0.39257379  -1.39022902  -0.31308988
H   -0.52441456   0.50815277  -2.67291060
H   -0.56621847  -0.15427780   1.79445288
H    0.00636658   1.50908470   1.96729758
H    2.36274759   0.74577301   1.81021338
H    1.49896543  -0.00901047   3.16808588
