23
Energy: 4.353
C    0.32638399   1.32294185   1.80481984
C    0.76645930   1.12896638   0.36368832
C    1.66709485  -0.08613994   0.14001479
H    2.69332394   0.08190802   0.45924653
H    1.26249944  -0.94748792   0.67010041
C    1.55461078  -0.26793122  -1.37035256
H    2.30041371   0.34751605  -1.89421612
H    1.67262655  -1.30574597  -1.69433962
O    0.25704508   0.17337890  -1.74137912
C   -0.35134063   0.89091693  -0.67432851
C   -1.61718773   0.14530217  -0.20403207
H   -2.33932918   0.22628771  -1.01830039
C   -1.43420851  -1.34875747   0.08725896
H   -2.39422918  -1.86005753  -0.06926989
O   -0.94975512  -1.64186243   1.37954104
H   -1.62299747  -1.39318239   2.02253144
H   -0.71030065  -1.76934412  -0.61208379
H   -2.03372953   0.65273192   0.66776761
H   -0.69258434   1.85639496  -1.07683556
H    1.30941868   2.02555860   0.04081700
H   -0.41414158   2.11697176   1.87826993
H    1.18561740   1.60097888   2.41134067
H   -0.08644294   0.40302237   2.20618968
