23
Energy: 2.978
C   -0.34049059  -2.23354396  -0.74680471
C    0.70094200  -1.14884397  -0.99977125
C    0.56135143  -0.56143123  -2.41148045
H    1.53241849  -0.25128874  -2.79663629
H    0.12733036  -1.27579014  -3.10769511
C   -0.35123495   0.66430020  -2.20892288
H    0.11689815   1.57340745  -2.60994508
H   -1.33080603   0.54361743  -2.67874633
O   -0.56386831   0.81012095  -0.81814129
C    0.47005343   0.11316038  -0.14471849
C    0.06923037  -0.11087718   1.30666273
H    0.77820125  -0.79282369   1.77907746
C    0.04086749   1.21159857   2.07732725
H    1.04218428   1.64692444   2.11727155
O   -0.34896358   1.04738979   3.42013018
H   -1.23856523   0.67728289   3.43795081
H   -0.62519586   1.91261748   1.55774243
H   -0.92599988  -0.55790417   1.33593439
H    1.39291878   0.72099723  -0.16995370
H    1.70046296  -1.55380109  -0.82904079
H   -1.34178858  -1.82179878  -0.84716720
H   -0.22967054  -2.65384991   0.24943370
H   -0.22105479  -3.03780469  -1.46974094
