23
Energy: 2.969
C    0.49321659  -0.60309344   2.02649754
C   -0.57146469  -0.51584044   0.93803980
C   -1.76100744   0.33877179   1.39339130
H   -2.66626746   0.03774892   0.86565123
H   -1.94224086   0.26279913   2.46330726
C   -1.35278376   1.76259538   0.98131924
H   -2.17918072   2.29196270   0.49045795
H   -1.02041498   2.36129460   1.83578496
O   -0.26171025   1.64967241   0.08450093
C   -0.12083443   0.28875531  -0.29512384
C    1.30070184   0.06311453  -0.79989930
H    2.01420051   0.19483461   0.01163478
C    1.47701356  -1.32111951  -1.42495810
H    2.52527053  -1.44528244  -1.73601227
O    0.61476830  -1.54961791  -2.51306015
H    0.74661183  -0.84846595  -3.16164346
H    1.23855059  -2.10280849  -0.70080841
H    1.50602255   0.83303000  -1.54833736
H   -0.82051906   0.06773310  -1.12046476
H   -0.88835002  -1.51960685   0.64956707
H    0.88111680   0.38679418   2.25473581
H    1.31721238  -1.24168394   1.71809201
H    0.06095003  -1.02372087   2.93217660
