23
Energy: 2.097
C    1.78308210   1.93055243  -0.56573016
C    1.01748400   0.72935367  -1.09500904
C    1.79124879  -0.59325100  -1.03217313
H    2.43212597  -0.73622083  -1.89939245
H    2.41372509  -0.62496798  -0.13750643
C    0.67813727  -1.64995413  -0.96150150
H    0.57941679  -2.21293974  -1.89441277
H    0.84823698  -2.36229682  -0.14438865
O   -0.54798996  -0.96567162  -0.75570220
C   -0.27351864   0.36348270  -0.34005683
C   -0.15993349   0.47478380   1.18938923
H   -0.20505367   1.52886803   1.46298437
C   -1.29373283  -0.28737191   1.89085237
H   -1.13855736  -1.36646935   1.75879552
O   -2.57348478   0.07638706   1.43970117
H   -2.65601573  -0.22790523   0.52849008
H   -1.27656644  -0.06264646   2.96042467
H    0.78624912   0.05816592   1.53532030
H   -1.11976562   0.97355231  -0.67505718
H    0.73699620   0.91957733  -2.13665018
H    1.15040495   2.81494324  -0.57335131
H    2.64766766   2.12196816  -1.19746491
H    2.13276148   1.76217203   0.44914942
