23
Energy: 3.898
C   -1.71658348  -0.90586033  -0.99677360
C   -0.28170201  -1.29043176  -0.65618189
C    0.71082535  -0.77145030  -1.71226654
H    0.97697678  -1.52796897  -2.44666141
H    0.28518298   0.08822094  -2.23199091
C    1.90774586  -0.33236951  -0.87001623
H    2.56052283  -1.18991250  -0.64722110
H    2.50277896   0.46323901  -1.31971665
O    1.34395984   0.16749539   0.31872508
C    0.29221401  -0.72088018   0.68353929
C   -0.68732583  -0.00588164   1.62929980
H   -0.40381479  -0.21396739   2.66162162
C   -0.69461210   1.52266941   1.46057051
H   -1.55216017   1.94031016   1.99410736
O   -0.81467008   1.94425712   0.12779054
H   -0.00910599   1.63807005  -0.31279240
H    0.22444536   1.93087666   1.90055939
H   -1.68837017  -0.40170290   1.47119076
H    0.73987501  -1.56779803   1.23035566
H   -0.22356724  -2.38210447  -0.60723603
H   -1.86301899   0.16863045  -0.92247038
H   -2.42218358  -1.40748249  -0.33804104
H   -1.93527617  -1.21811504  -2.01614428
