23
Energy: 2.759
C   -2.18768429  -0.84840192  -1.21170547
C   -0.68812999  -0.72495200  -1.42537327
C   -0.25514080   0.59064302  -2.08368233
H   -0.31071327   0.54522366  -3.16906612
H   -0.88964219   1.40955466  -1.74308350
C    1.18859913   0.77292110  -1.59097280
H    1.92270311   0.60333677  -2.38418001
H    1.35305265   1.77753893  -1.18063574
O    1.42508165  -0.20324285  -0.58787148
C    0.18606253  -0.73806065  -0.15563638
C   -0.39336780   0.06387420   1.01652873
H   -1.33690341  -0.37956259   1.33503087
C    0.57837779   0.07026773   2.19876650
H    0.72992394  -0.94847362   2.56256768
O    0.08605112   0.79424101   3.30250535
H   -0.05205075   1.70955113   3.03457506
H    1.54835318   0.46654634   1.87041998
H   -0.57955576   1.09367958   0.70091796
H    0.39419609  -1.75747242   0.18653871
H   -0.35076372  -1.55666893  -2.05275562
H   -2.58097031   0.00350316  -0.66338424
H   -2.41862208  -1.75659894  -0.66007260
H   -2.69196347  -0.89481256  -2.17444257
