23
Energy: 4.007
C   -1.85487590   1.09238440   0.19956961
C   -0.34730528   1.18082425  -0.01231767
C    0.32163370   1.99566627   1.10296860
H    1.23300659   2.46854420   0.73577588
H   -0.33327934   2.76974719   1.49643954
C    0.66008359   0.93641686   2.16687098
H    1.69915061   1.03102255   2.50785497
H    0.00401218   0.99781074   3.04001701
O    0.46580270  -0.33603985   1.57595540
C    0.36954208  -0.17219427   0.17192923
C   -0.29743078  -1.41177594  -0.41753868
H   -1.30762021  -1.50018595  -0.02165292
C   -0.34311058  -1.40625531  -1.94739649
H   -0.96548665  -2.23393871  -2.29554998
O    0.91166518  -1.61651705  -2.54807317
H    1.52754367  -0.94867270  -2.22810885
H   -0.78485149  -0.46609457  -2.30859335
H    0.26836514  -2.28280963  -0.08228773
H    1.39213295  -0.07476454  -0.24267833
H   -0.13814220   1.60802879  -0.99569683
H   -2.33255017   0.54218934  -0.60716022
H   -2.28266037   2.09243745   0.22751232
H   -2.07198648   0.59493892   1.14159401
