23
Energy: 4.024
C   -0.36870669   1.57430516   1.68466405
C   -0.41934097   0.08105835   1.40837625
C   -1.83160704  -0.46989929   1.17491309
H   -2.34309061  -0.69551821   2.10801562
H   -2.43315544   0.25053406   0.61997142
C   -1.57906651  -1.73314495   0.33638276
H   -1.76415330  -2.65234872   0.89898153
H   -2.20096878  -1.74813334  -0.56733941
O   -0.20609529  -1.73475817  -0.02331885
C    0.31128451  -0.42622622   0.14920119
C    0.09827088   0.42495871  -1.11620431
H   -0.84519095   0.96665915  -1.05872884
C    1.24138423   1.40776211  -1.37889865
H    0.93541232   2.14565829  -2.12465909
O    2.38236287   0.78770692  -1.92087805
H    2.59194251   0.00728127  -1.39540235
H    1.50323304   1.94030887  -0.45320946
H    0.03851348  -0.25885388  -1.96651042
H    1.38504358  -0.55109600   0.33234905
H    0.02012351  -0.44798156   2.26119570
H   -0.94201686   1.79622507   2.58220930
H   -0.78689539   2.14941634   0.86301277
H    0.65669033   1.89697510   1.84884768
