23
Energy: 3.805
C   -1.69312716  -1.72707236  -0.90044051
C   -0.39920711  -0.99375997  -1.21250904
C   -0.57240996   0.21577300  -2.13921666
H   -0.55874215  -0.06444154  -3.19038529
H   -1.51794978   0.71727975  -1.93037163
C    0.61702466   1.11533950  -1.77017710
H    1.38151858   1.13429955  -2.55309076
H    0.29858473   2.14793187  -1.57632613
O    1.22169682   0.56978774  -0.60906968
C    0.33213441  -0.36149263  -0.01399932
C   -0.59062332   0.32279280   1.00387660
H   -1.27592716  -0.41086919   1.42526379
C    0.23256674   0.91451566   2.14381222
H    1.07783358   1.47331232   1.72223701
O    0.68857756  -0.14576145   2.95993409
H    1.32398812   0.19845418   3.59478077
H   -0.38890281   1.60420138   2.73521520
H   -1.15794554   1.11848386   0.52104336
H    0.95096873  -1.08602323   0.52344169
H    0.30051613  -1.69473802  -1.67999607
H   -1.51900089  -2.50021270  -0.15600404
H   -2.07482300  -2.19908674  -1.80336308
H   -2.45251275  -1.04546186  -0.52638391
