23
Energy: 3.174
C    2.23330052  -0.91880050   0.51718644
C    0.75563607  -1.17967516   0.78852768
C    0.37039291  -0.77838513   2.21694885
H   -0.50725602  -1.33798190   2.54279008
H    1.17388680  -0.94565853   2.93050600
C    0.02981110   0.71110663   2.07650899
H   -0.84991990   0.98754553   2.66969808
H    0.86514635   1.35078838   2.38308525
O   -0.23206536   0.95920352   0.70559626
C   -0.18817423  -0.26444869  -0.01457253
C    0.20560106   0.00305474  -1.46431428
H    0.26382007  -0.95006988  -1.99232034
C   -0.79835389   0.91969059  -2.17457577
H   -0.86817409   1.86403710  -1.62094352
O   -2.07121567   0.34226404  -2.33792730
H   -2.47374481   0.24633271  -1.46829199
H   -0.44325927   1.12808125  -3.18680787
H    1.17767801   0.49242263  -1.49296199
H   -1.19352080  -0.72621636   0.00402371
H    0.53036768  -2.23012960   0.59161233
H    2.50347729  -1.23007561  -0.48844205
H    2.84137696  -1.48248908   1.22175481
H    2.46068709   0.13807843   0.63117587
