23
Energy: 4.365
C   -2.17078417  -0.13147912   1.13278092
C   -1.36846048  -0.75167912  -0.00619167
C   -1.91415916  -0.31554734  -1.37285503
H   -1.75443138  -1.09653704  -2.11602691
H   -2.97752672  -0.08828899  -1.33497598
C   -1.07555127   0.93075554  -1.71786035
H   -0.61285008   0.83053625  -2.70940864
H   -1.66509969   1.85187774  -1.70428759
O   -0.07165048   1.05515855  -0.73069799
C    0.06859798  -0.20408589  -0.08949876
C    0.80515567  -0.02325719   1.23173079
H    0.72905658  -0.94363162   1.81091244
C    2.28038845   0.28336686   0.99183291
H    2.36013380   1.11103245   0.27620483
O    2.90814656  -0.87928980   0.48890702
H    3.81789897  -0.66810301   0.25761946
H    2.75210851   0.58715598   1.93817807
H    0.36077987   0.80111415   1.78702190
H    0.66442904  -0.87736190  -0.72790951
H   -1.36333032  -1.83847744   0.09752578
H   -1.78517698  -0.45051310   2.09752645
H   -3.21257350  -0.43831404   1.06392624
H   -2.12278194   0.95326607   1.07674459
