23
Energy: 3.201
C   -0.31075663  -1.75998763  -1.22072172
C   -0.78017171  -1.40558619   0.18530203
C    0.17002169  -1.97702206   1.24522927
H   -0.36484810  -2.15439491   2.17856891
H    0.63366292  -2.90855979   0.92879415
C    1.20565194  -0.85705323   1.42990850
H    1.42535192  -0.67971269   2.48952798
H    2.14681178  -1.07563570   0.91450837
O    0.66501654   0.32191374   0.85776342
C   -0.70036794   0.09456263   0.53314172
C   -1.19405073   1.09690103  -0.52055530
H   -1.59340061   1.97416953  -0.00807632
C   -0.11180899   1.59924247  -1.48435458
H    0.43279138   0.75665221  -1.92783447
O    0.78228176   2.48766510  -0.86853633
H    1.14257079   2.02666182  -0.09814724
H   -0.58696619   2.16479822  -2.29122457
H   -2.00682091   0.63703647  -1.08366643
H   -1.30459620   0.23950160   1.44778087
H   -1.80166592  -1.76695492   0.32513029
H   -0.35627939  -2.83871009  -1.35806641
H    0.71591165  -1.43824365  -1.37428397
H   -0.94227039  -1.29533653  -1.97343613
