23
Energy: 3.31
C    0.45069803   0.19743350  -2.40374469
C    0.07157137  -0.81116893  -1.32432780
C    1.24153270  -1.75623433  -1.01292616
H    0.87741304  -2.74798729  -0.74615834
H    1.91754747  -1.85470116  -1.85973693
C    1.93474148  -1.09473682   0.19650498
H    1.97548444  -1.78725470   1.04872049
H    2.95056331  -0.75978036  -0.02704065
O    1.17961807   0.04727970   0.54255703
C   -0.13559222  -0.15156538   0.05352202
C   -0.88854843   1.17311421   0.07397953
H   -1.77755173   1.09118012  -0.55702447
C   -1.30451831   1.53993647   1.50077555
H   -0.43546488   1.48203181   2.15791179
O   -2.25186992   0.64951849   2.04062201
H   -3.03147744   0.64611559   1.47332368
H   -1.69448380   2.56842892   1.51734853
H   -0.24391944   1.95867661  -0.31714567
H   -0.66467773  -0.86572021   0.70882914
H   -0.82012529  -1.36182971  -1.63201386
H    0.72436270  -0.32263668  -3.31948463
H    1.29826642   0.79336115  -2.07433277
H   -0.37973531   0.86270236  -2.62643198
