23
Energy: 3.645
C    0.41588850   0.83835562   1.73478286
C    0.93973748   0.12672185   0.49098067
C    1.68612832  -1.15687377   0.87651697
H    2.42313199  -1.41104086   0.11458240
H    2.19510953  -1.06991306   1.83392625
C    0.56957150  -2.21639009   0.91509781
H    0.85795305  -3.12050781   0.36342022
H    0.30413809  -2.50596945   1.93633672
O   -0.58035544  -1.64139550   0.32021460
C   -0.17782881  -0.47504024  -0.38170326
C   -1.40670467   0.38019464  -0.67225818
H   -1.75836454   0.85636846   0.24364350
C   -1.14857763   1.43013283  -1.75386670
H   -0.78496822   0.94861710  -2.66480404
O   -0.15681208   2.36833592  -1.41242128
H   -0.42430313   2.81933317  -0.60394938
H   -2.09294556   1.94363468  -1.98787126
H   -2.19346695  -0.29124096  -1.01877134
H    0.26916021  -0.77315695  -1.34742894
H    1.56359964   0.80553342  -0.09183868
H   -0.05108187   1.78738990   1.48334308
H    1.23938816   1.04459427   2.41540364
H   -0.31111456   0.21249276   2.24765722
