23
Energy: 3.709
C   -0.48910567   2.14360225   0.47667809
C    0.47558406   1.37333544  -0.40853318
C    1.84882440   1.12698338   0.22930679
H    2.51974400   1.97305865   0.09778211
H    1.74187227   0.93787312   1.29772125
C    2.35411421  -0.12710784  -0.50083440
H    3.17906820   0.09095316  -1.18480516
H    2.68484494  -0.89923737   0.20545716
O    1.28039565  -0.62059402  -1.28698233
C    0.06859923  -0.05666410  -0.81312355
C   -0.52548942  -0.91779244   0.31411006
H   -0.12305605  -0.62141852   1.28360929
C   -2.05326097  -0.88038024   0.36604507
H   -2.41360301   0.12780973   0.57487186
O   -2.57089941  -1.67930048   1.40366605
H   -2.26495178  -2.58480411   1.27852626
H   -2.46134414  -1.19884095  -0.60496944
H   -0.20989520  -1.94867956   0.12515062
H   -0.62201344  -0.06153734  -1.66335823
H    0.62199826   1.93262045  -1.33895303
H   -1.44107449   2.28255775  -0.02997305
H   -0.07393273   3.12498698   0.69663257
H   -0.66377915   1.63078032   1.41832031
