23
Energy: 1.34
C   -1.10263597   2.03352407   1.13627228
C    0.18842678   1.66622544   0.41188264
C    1.29734561   1.26063065   1.40157211
H    2.24301505   1.73021655   1.13175419
H    1.05301302   1.52564520   2.42755364
C    1.39761008  -0.25010326   1.20482459
H    2.38652410  -0.65834801   1.41493328
H    0.65435619  -0.77591625   1.82134365
O    1.13649625  -0.45130760  -0.16558645
C    0.09568012   0.44498835  -0.55138777
C   -1.25886176  -0.27613124  -0.57938332
H   -2.03738961   0.42596445  -0.87480486
C   -1.24210250  -1.44300178  -1.57416344
H   -2.25421008  -1.83878715  -1.69813518
O   -0.45592051  -2.51931509  -1.13930879
H    0.39677518  -2.14966649  -0.86143382
H   -0.89087561  -1.07989933  -2.55365722
H   -1.49380708  -0.67352262   0.40852529
H    0.33630929   0.75000632  -1.57784711
H    0.50598905   2.53898392  -0.16429385
H   -1.88713858   2.29397814   0.43079776
H   -0.92078220   2.89948327   1.76940608
H   -1.45270882   1.21961423   1.76487833
