23
Energy: 4.389
C    1.40032289   0.80000643  -1.40942861
C   -0.06305264   0.41886397  -1.25735785
C   -0.42255594  -0.95300053  -1.84070528
H   -0.57471163  -0.91483660  -2.91714292
H    0.36802846  -1.67354877  -1.62997097
C   -1.71150961  -1.31722894  -1.08748187
H   -2.59891657  -1.25494753  -1.72330746
H   -1.65930585  -2.32750330  -0.66262771
O   -1.87512790  -0.36312673  -0.04887797
C   -0.63082709   0.28273630   0.17104266
C    0.23147573  -0.52768932   1.16054848
H    0.99881934  -1.09708510   0.63583263
C    0.89290915   0.32339664   2.24675709
H    0.12430582   0.91680932   2.76407889
O    1.92025385   1.15817440   1.77160493
H    1.54837384   1.75937527   1.11739170
H    1.37210744  -0.33040717   2.97967287
H   -0.43281478  -1.23694815   1.65763759
H   -0.87657567   1.25611621   0.61112025
H   -0.67578464   1.17365105  -1.76371958
H    2.05159077   0.16300806  -0.81767302
H    1.56239586   1.83421516  -1.11200213
H    1.68979491   0.70561219  -2.45401450
