23
Energy: 3.854
C   -1.42631893   1.89513400  -0.28359812
C   -1.51949811   0.37803171  -0.25546207
C   -1.10449241  -0.31042457  -1.55755494
H   -1.88228266  -0.27660245  -2.31738645
H   -0.19756691   0.14090466  -1.95836234
C   -0.83319566  -1.73163959  -1.07456720
H   -1.76101550  -2.32233659  -1.07050256
H   -0.08580696  -2.25994230  -1.67177706
O   -0.34421952  -1.62525706   0.25035070
C   -0.64850259  -0.34574834   0.79748821
C    0.65278637   0.35127229   1.22695945
H    1.05558877  -0.22144561   2.06778299
C    1.73348947   0.40311843   0.14516767
H    1.87659521  -0.60442389  -0.26764431
O    2.95163984   0.91332731   0.63716114
H    3.24712877   0.35533956   1.36519347
H    1.45661661   1.08047379  -0.66449286
H    0.43018699   1.35686584   1.58399081
H   -1.23815460  -0.50448368   1.71302767
H   -2.56131289   0.10544421  -0.04923920
H   -2.11432048   2.28485069  -1.03096117
H   -0.42547160   2.23231165  -0.53511795
H   -1.70312607   2.31047669   0.68266141
