23
Energy: 4.354
C    0.44540746   2.32886979   0.69434677
C    0.20086546   0.94224968   1.28278132
C   -1.20443283   0.83725963   1.90265619
H   -1.16596259   0.29788577   2.84879330
H   -1.66026434   1.81066829   2.06904240
C   -1.96409703   0.00733370   0.87003894
H   -2.79360639  -0.56451194   1.28702256
H   -2.34482881   0.64840028   0.05983178
O   -1.01649425  -0.90945340   0.37997865
C    0.23060099  -0.23574820   0.26363914
C    0.47555109   0.15127692  -1.20163722
H    1.36023506   0.78533182  -1.28201626
C    0.68218346  -1.10822500  -2.04750405
H   -0.10814136  -1.82795960  -1.82671936
O    1.89020728  -1.76885538  -1.75577772
H    2.62126274  -1.15841545  -1.90583306
H    0.63878278  -0.84664212  -3.11554017
H   -0.38510796   0.69580867  -1.58990378
H    0.99641928  -0.96962110   0.54169608
H    0.96159739   0.76540014   2.04739922
H    0.36875692   3.07075902   1.48674102
H   -0.28688366   2.57037005  -0.07129533
H    1.44120293   2.40481596   0.26504847
