23
Energy: 2.319
C   -2.27033534   0.37005280   0.93559302
C   -0.82649813   0.10694692   1.33530166
C   -0.40601710  -1.36163891   1.22428086
H   -0.73351957  -1.95927253   2.07182611
H   -0.79417994  -1.80491756   0.30676439
C    1.11063999  -1.23263586   1.15385463
H    1.53450979  -1.11306157   2.16174193
H    1.60537732  -2.07044494   0.65887691
O    1.36059903  -0.06945191   0.38985478
C    0.26884181   0.84589161   0.51873912
C   -0.12328914   1.36914703  -0.87293996
H    0.66662387   2.04454370  -1.20863966
C   -0.27093569   0.28199265  -1.94257282
H   -0.91439269  -0.53325240  -1.58001959
O    0.96644512  -0.23114008  -2.36092522
H    1.48078681  -0.39353655  -1.55499324
H   -0.74003315   0.70928679  -2.83423896
H   -1.04533505   1.94306708  -0.79099203
H    0.61829308   1.71280456   1.10154049
H   -0.70805204   0.41185582   2.38142912
H   -2.50709974   1.42714844   1.03175497
H   -2.93079919  -0.18640519   1.59754483
H   -2.46986474   0.05828033  -0.08533662
