23
Energy: 3.769
C   -1.63119200   0.99375895  -0.18687067
C   -0.12268573   1.08312053   0.02061487
C    0.21663771   1.83347504   1.31640679
H    1.18780622   2.32178807   1.22958403
H   -0.52776261   2.58777385   1.56160964
C    0.27281597   0.71797575   2.37313732
H    1.17603700   0.79823055   2.99146756
H   -0.59914664   0.72685659   3.03420924
O    0.27509582  -0.51886581   1.68428918
C    0.53582618  -0.28203742   0.31016607
C    0.06118904  -1.50420954  -0.47367987
H   -1.02613543  -1.56145716  -0.45482622
C    0.55445319  -1.54839146  -1.92137977
H    1.64079363  -1.37596201  -1.94794169
O   -0.10628325  -0.65155216  -2.78083239
H    0.06125845   0.24813095  -2.48124373
H    0.35374824  -2.53751178  -2.33944257
H    0.44861545  -2.37853412   0.05121244
H    1.62832178  -0.17423742   0.16534603
H    0.34286776   1.57406968  -0.83901106
H   -2.09012965   0.46126282   0.64269925
H   -1.87317821   0.47789525  -1.11272280
H   -2.05674941   1.99416304  -0.23556352
