23
Energy: 3.718
C   -1.91887888   1.56945231  -0.90439113
C   -0.61744470   1.62416705  -0.12170401
C   -0.79070609   1.46014010   1.39371917
H   -0.99430276   2.40786203   1.88765337
H   -1.61410488   0.77853413   1.60746528
C    0.55009789   0.85650618   1.84226935
H    1.14803217   1.55707822   2.43216481
H    0.40263607  -0.05533767   2.43476310
O    1.29540902   0.55773402   0.67192910
C    0.41271393   0.52152890  -0.43585398
C   -0.20325168  -0.86933899  -0.62680023
H   -0.82974344  -0.87852789  -1.51799084
C    0.88253538  -1.92882313  -0.78089420
H    1.49624493  -1.70268274  -1.66531526
O    0.25813478  -3.18892832  -0.92087460
H    0.93688734  -3.86664454  -0.99734451
H    1.53512494  -1.91191290   0.10180894
H   -0.81876999  -1.13516257   0.23263620
H    1.01841304   0.76436111  -1.31590975
H   -0.12711792   2.58408314  -0.31593168
H   -1.72055376   1.60670925  -1.97296948
H   -2.54065414   2.42252967  -0.64147011
H   -2.47392051   0.66194339  -0.68348095
