23
Energy: 3.127
C    0.64437313   2.41820175   0.62302673
C   -0.14293200   1.19802309   1.07213572
C   -1.64652644   1.28349595   0.78356703
H   -2.18669718   1.81346439   1.56509843
H   -1.81947698   1.79833812  -0.16218911
C   -2.07061005  -0.19043263   0.69042464
H   -2.66321198  -0.50699369   1.55401592
H   -2.65518655  -0.38699486  -0.21764052
O   -0.88905133  -0.97475182   0.68493598
C    0.22186968  -0.14192586   0.40452890
C    0.47785336  -0.05531245  -1.10725666
H    1.27357111   0.66574946  -1.30508835
C    0.89154829  -1.42369843  -1.65396639
H    0.20717034  -2.18700245  -1.27854599
O    2.17197845  -1.81832205  -1.22304089
H    2.81171341  -1.15368776  -1.50334376
H    0.84582446  -1.41293251  -2.75357734
H   -0.42845069   0.27148177  -1.61751464
H    1.09026146  -0.61636189   0.87317659
H   -0.00106503   1.06423674   2.14977213
H    0.45259063   2.65083565  -0.42146882
H    1.71104230   2.25305999   0.75766522
H    0.35476382   3.28060827   1.21954623
