23
Energy: 2.754
C    0.50904958   0.90538702  -2.43463289
C   -0.64792700   0.45835939  -1.55617493
C   -0.95869975  -1.04161497  -1.64552543
H   -1.64779159  -1.26800049  -2.45629859
H   -0.04215543  -1.60920251  -1.80775091
C   -1.56616273  -1.36326711  -0.26976881
H   -2.63056806  -1.60636764  -0.32784262
H   -1.04634813  -2.20004935   0.21357718
O   -1.45067305  -0.19568813   0.52864691
C   -0.46477563   0.64678823  -0.03661176
C    0.94143119   0.29926157   0.46975298
H    1.65692490   1.01561546   0.05929938
C    0.99468668   0.34338127   1.99816020
H    0.73198097   1.35286090   2.34728508
O    2.24756462  -0.04783242   2.50817464
H    2.92257978   0.54539235   2.15980269
H    0.27067705  -0.36008973   2.41279766
H    1.22215882  -0.70254025   0.14141229
H   -0.71282827   1.66472605   0.28392621
H   -1.54448715   1.01921832  -1.84028094
H    0.24309249   0.78054331  -3.48196338
H    1.40309213   0.31905575  -2.23963964
H    0.73345208   1.95558062  -2.26211181
