23
Energy: 4.249
C    0.92088416  -0.42094522   1.88504353
C    1.08413489  -0.64841041   0.39177301
C    0.65826623  -2.03775756  -0.09608863
H    1.43374332  -2.78541952   0.05546809
H   -0.24143422  -2.36499361   0.42678693
C    0.36625857  -1.80204122  -1.58592305
H    1.13261095  -2.23708851  -2.23401168
H   -0.60781352  -2.21611473  -1.87666737
O    0.38017724  -0.39971027  -1.80400148
C    0.27584192   0.26211820  -0.55369490
C   -1.20152407   0.48254512  -0.16929832
H   -1.51219741  -0.21433392   0.61123391
C   -1.49347800   1.91692630   0.27505857
H   -1.18789942   2.61756665  -0.50533189
O   -0.78637013   2.30992323   1.42658668
H   -1.02340729   1.71785538   2.14916499
H   -2.57626105   2.03093137   0.43677986
H   -1.80478231   0.28048745  -1.05609407
H    0.75585186   1.23706607  -0.67903900
H    2.13788866  -0.50002264   0.13269914
H    1.12502474   0.61888848   2.12749083
H    1.62392377  -1.04824016   2.42885250
H   -0.08119950  -0.67538589   2.22351701
