23
Energy: 0.627
C   -0.71331307   2.23123972  -0.58663368
C   -0.41569506   1.47437066   0.70325020
C   -1.70216280   0.95613856   1.35785022
H   -1.55944757   0.84027391   2.43261397
H   -2.54928530   1.61708974   1.18969175
C   -1.90769762  -0.41508438   0.69704234
H   -2.18159490  -1.18225434   1.43124977
H   -2.67964058  -0.38827475  -0.07880446
O   -0.68468650  -0.77280777   0.07504671
C    0.32750037   0.14674728   0.46820991
C    1.44317044   0.16617849  -0.57303536
H    2.15791996   0.94513524  -0.30476123
C    2.16036246  -1.18499486  -0.64735680
H    3.05416646  -1.10001993  -1.27216383
O    1.36964270  -2.18397741  -1.23244063
H    0.48244225  -2.10722300  -0.85275314
H    2.47559765  -1.48717202   0.36505133
H    1.02382042   0.38441380  -1.55497620
H    0.75283420  -0.18575149   1.43322156
H    0.14935908   2.11684213   1.38193163
H   -1.36723004   3.07513225  -0.37690193
H   -1.20689575   1.57985959  -1.30353318
H    0.20181705   2.61337447  -1.03131322
