23
Energy: 3.456
C   -1.58453207   1.71752989  -0.43382135
C   -1.65351416   0.21875698  -0.16211100
C   -2.01908095  -0.56079328  -1.43293521
H   -2.58091938  -1.46066265  -1.18297755
H   -2.61415408   0.03661448  -2.12010564
C   -0.65126405  -0.93329669  -2.03739343
H   -0.58573141  -2.01306561  -2.22752099
H   -0.44585294  -0.40491500  -2.97208284
O    0.34337535  -0.55078197  -1.10682408
C   -0.27512625  -0.39466711   0.15655733
C    0.63161662   0.41282902   1.07531694
H    0.08492370   0.65034825   1.99243735
C    1.90338295  -0.36716608   1.41602159
H    1.63699350  -1.31501976   1.90810655
O    2.79342327   0.36971419   2.21900775
H    2.33990194   0.62594957   3.03008761
H    2.44579261  -0.59384755   0.49707148
H    0.91887781   1.34072538   0.58198934
H   -0.43772302  -1.39253209   0.60616237
H   -2.36130553   0.02425712   0.64668612
H   -1.34233648   2.26688562   0.47226601
H   -2.54590999   2.07253510  -0.79925238
H   -0.82721754   1.92643258  -1.18520993
