23
Energy: 0.0
C   -2.48153739  -0.50820140  -1.05309095
C   -1.02538204  -0.18544276  -1.34383759
C   -0.71672159   1.31494578  -1.40213111
H   -0.93915780   1.74459353  -2.37631220
H   -1.29987237   1.84759891  -0.65035211
C    0.78108122   1.37758570  -1.07692905
H    1.38915743   1.57457080  -1.96513639
H    1.00496144   2.14413944  -0.32603816
O    1.16412579   0.09958892  -0.58445818
C    0.00109868  -0.67003729  -0.30224119
C   -0.44898018  -0.50604324   1.15630196
H   -1.32095466  -1.13520293   1.33284108
C    0.66114380  -0.91591300   2.13095556
H    0.27240544  -0.92941936   3.15327370
O    1.73968474  -0.01976253   2.13792851
H    1.99719171   0.11275761   1.21212199
H    1.00599302  -1.93179462   1.87891779
H   -0.71399440   0.53432536   1.35004316
H    0.28213593  -1.71708427  -0.46615642
H   -0.74695627  -0.63669363  -2.30237503
H   -3.10223793  -0.17468752  -1.88175051
H   -2.82388829  -0.00997732  -0.15007417
H   -2.61678297  -1.58075706  -0.93433638
