23
Energy: 3.427
C   -1.75818121  -0.43736392  -0.92935303
C   -0.44987153  -1.10788972  -0.52461564
C    0.27563967  -1.69048639  -1.74456976
H    0.90001738  -2.53359483  -1.44792865
H   -0.41481858  -2.02602010  -2.51507756
C    1.15110402  -0.52269496  -2.22963212
H    2.17888756  -0.84954896  -2.43248320
H    0.75379734  -0.05382692  -3.13518135
O    1.15705170   0.45783627  -1.20666530
C    0.61409158  -0.11084653  -0.02706611
C    0.14748675   1.01405871   0.88858974
H   -0.66347492   1.56703114   0.41571146
C   -0.30183999   0.50206996   2.25688466
H   -1.14679756  -0.18203396   2.15384545
O   -0.76172977   1.53574040   3.09283004
H   -0.06832523   2.20064222   3.17228976
H    0.52497521  -0.04289235   2.73780007
H    0.98720561   1.70305460   1.01388540
H    1.40389614  -0.68373384   0.49471046
H   -0.64531651  -1.87465722   0.22774678
H   -1.56345939   0.38120553  -1.61792589
H   -2.28411132  -0.04985257  -0.06096644
H   -2.40570225  -1.15961319  -1.42228943
