23
Energy: 3.02
C    0.36538996   2.21277183   0.44095904
C    0.59513239   0.81578603   0.99179908
C   -0.34572513   0.42957437   2.14000161
H    0.00867779   0.79303756   3.10212762
H   -1.34280171   0.83602887   1.96667445
C   -0.36209205  -1.10544246   2.07500487
H    0.17751199  -1.56381236   2.90868113
H   -1.38714028  -1.49790361   2.06903410
O    0.30731451  -1.48703442   0.88373973
C    0.38929012  -0.36251379   0.02220320
C   -0.85777842  -0.27208319  -0.87539071
H   -1.64529444   0.31481959  -0.40309957
C   -0.55076086   0.30732877  -2.25743644
H   -1.47567054   0.32015861  -2.85486094
O    0.45836683  -0.40037664  -2.93523858
H    0.22476779  -1.33588645  -2.94563061
H   -0.17972434   1.33023365  -2.17849397
H   -1.23228076  -1.29284442  -0.99941676
H    1.26206995  -0.52665012  -0.61801526
H    1.62693965   0.74742478   1.35288755
H   -0.65494914   2.34164652   0.08923143
H    1.04836583   2.41117904  -0.38121470
H    0.54990051   2.94666494   1.22283636
