44
Energy: 2.158858
 C         -3.8806968305       -2.2784182888        1.1247160285
 C         -2.5603829887       -1.5915118240        1.3250073288
 O         -2.3282299099       -0.7525972267        2.1550536457
 O         -1.6490341985       -2.0275968292        0.4457004511
 C         -0.3674267169       -1.4040461613        0.4962213306
 C          0.6048573585       -2.2776477631       -0.2429151828
 C          1.9274428721       -2.1752257672       -0.1669137623
 C          2.8246715137       -3.0348406601       -1.0034632740
 C          2.6176229125       -1.2552556910        0.8017151789
 C          3.5402945575       -0.1883614477        0.1938069454
 C          2.9558558570        0.8404881446       -0.7642168562
 O          3.2746087443        2.1758126162       -0.4503077674
 C          1.9097856339        1.8464764408       -0.4773324507
 C          1.1630331746        2.4892899212       -1.6346159276
 C          1.1751471097        1.8626035050        0.8527589054
 C         -0.2114264446        1.1962591662        0.8266148322
 O         -1.1832573965        2.1745435426        0.4558180592
 C         -2.0477954281        1.7190077291       -0.4573035146
 O         -2.9826591190        2.3520330017       -0.8617877075
 C         -1.6368039592        0.3535901612       -0.8874440375
 C         -2.3069153415       -0.3512949353       -1.7870362657
 C         -0.3741465459        0.0113117770       -0.1549823094
 H         -4.5095028907       -1.6325750136        0.5139783555
 H         -4.3684685505       -2.4214792708        2.0844923431
 H         -3.7406966089       -3.2257375188        0.6141980032
 H         -0.0993071312       -1.3069287810        1.5564796643
 H          0.1426199210       -2.9829491411       -0.9168426455
 H          3.5467714629       -3.5549368760       -0.3763491663
 H          2.2525082430       -3.7686740261       -1.5635481478
 H          3.3809210981       -2.4201123902       -1.7098896464
 H          3.2536245237       -1.8756707598        1.4417124651
 H          1.8828386182       -0.7735293378        1.4414144537
 H          3.9838039045        0.3701450452        1.0215597630
 H          4.3594623481       -0.6834740485       -0.3310538376
 H          3.0917769831        0.5953264645       -1.8181399667
 H          0.7278033809        3.4299685165       -1.3051723553
 H          1.8624376416        2.6992883284       -2.4408102898
 H          0.3653386386        1.8598819025       -2.0209197044
 H          1.7985571388        1.3992606377        1.6157903930
 H          1.0187208694        2.9036413536        1.1464346087
 H         -0.4751942576        0.8840256125        1.8457984917
 H         -1.9972322404       -1.3319050231       -2.1041994403
 H         -3.2029115172        0.0602284972       -2.2212320195
 H          0.4566937086        0.0132275545       -0.8638399534
