44
Energy: 3.015616
 C         -2.3594084181       -3.5247046956       -1.2841132770
 C         -1.3824054397       -2.4488121682       -0.8831220537
 O         -0.4362229349       -2.1131160440       -1.5491383441
 O         -1.7294286040       -1.9396332648        0.2940077771
 C         -0.9647056390       -0.9272498825        0.9829112879
 C          0.1486374416       -1.5541859041        1.7897589771
 C          1.4099581676       -1.8489182730        1.4839058665
 C          2.2909694429       -2.4889072208        2.5167804518
 C          2.1111585961       -1.5812851528        0.1840265063
 C          2.8856656855       -0.2452405347        0.2190122804
 C          2.6068560842        0.5778586017       -1.0169583397
 O          3.1165896756        1.8828959989       -1.0874008069
 C          1.7139582863        1.7488768544       -1.0589864234
 C          1.0061163541        2.0953445880       -2.3536982782
 C          1.0428065771        2.2985621463        0.1944490309
 C          0.0462577845        1.3783678848        0.9349774841
 O         -1.0498845262        2.1795736299        1.3835887116
 C         -2.1239610593        2.0301611947        0.5851493283
 O         -3.1197563312        2.6878012054        0.6891419198
 C         -1.8504235378        0.9325281281       -0.3866547639
 C         -2.6219925650        0.6546129363       -1.4261877953
 C         -0.5880479660        0.2685305605        0.0788595361
 H         -3.3637203830       -3.2532691318       -0.9737391202
 H         -2.0807289612       -4.4486751834       -0.7811690000
 H         -2.3134559325       -3.6798374812       -2.3577502501
 H         -1.7043338820       -0.5556389338        1.7064708917
 H         -0.1905464994       -1.8335420853        2.7798957163
 H          1.7950775565       -2.5699547969        3.4800279308
 H          2.5793290928       -3.4872734192        2.1897089451
 H          3.2026993814       -1.9059208820        2.6363651636
 H          1.4018849050       -1.5858623706       -0.6398714546
 H          2.8128100002       -2.3966092822        0.0008805276
 H          2.6243790067        0.3269981957        1.1085364309
 H          3.9604308311       -0.4345169616        0.2594554025
 H          2.7200946274        0.0139074514       -1.9433396543
 H         -0.0209740270        1.7391221574       -2.3368592992
 H          0.9989445790        3.1752333729       -2.4887801208
 H          1.5238078019        1.6497869072       -3.1993503718
 H          1.8228031231        2.6109751552        0.8901790026
 H          0.4972255216        3.2002304566       -0.0941124637
 H          0.5073771196        0.9630711000        1.8357963477
 H         -2.3890464802       -0.1347860826       -2.1210007313
 H         -3.5139203872        1.2318443992       -1.6037239992
 H          0.0470276956       -0.0514746638       -0.7393078716
