44
Energy: 0.370168
 C         -1.9189574213       -4.0766329372       -0.5718390283
 C         -1.7155382894       -3.0126186880        0.4744984950
 O         -1.9897608780       -3.1174823532        1.6382287180
 O         -1.1872309869       -1.9086154632       -0.0709950412
 C         -0.9334147365       -0.8099504785        0.8233618328
 C          0.2256122944       -1.1112606911        1.7360082691
 C          1.4414246671       -1.5146734615        1.3798560403
 C          2.4447591479       -1.8841417145        2.4330092344
 C          1.9221797340       -1.7021963966       -0.0346992112
 C          3.0087598893       -0.6805785713       -0.4333362083
 C          2.5674041874        0.4335503478       -1.3632401125
 O          3.2337577551        1.6600302589       -1.1894558333
 C          1.8439686179        1.6616328282       -0.9767148319
 C          1.0614797677        2.4168626727       -2.0363537519
 C          1.3872240674        1.8824053780        0.4559191040
 C         -0.1041535280        1.6227469956        0.6988677854
 O         -0.8606542001        2.7724375932        0.3249918691
 C         -1.9452061241        2.4602578255       -0.4018371886
 O         -2.7391374723        3.2731210131       -0.7819257901
 C         -1.9667460734        0.9908764010       -0.6450678535
 C         -2.9571154469        0.3770994346       -1.2750389636
 C         -0.7057626837        0.4226056018       -0.0633855462
 H         -2.6270126909       -3.7233564304       -1.3176668478
 H         -2.2991519221       -4.9784527604       -0.1028696175
 H         -0.9747635295       -4.2820764227       -1.0694913906
 H         -1.8325064729       -0.6692335488        1.4370670030
 H         -0.0086429250       -1.0400891094        2.7883324171
 H          2.1224187025       -1.5568789869        3.4172681984
 H          2.5606806481       -2.9677813887        2.4551044589
 H          3.4221717677       -1.4567067466        2.2209376304
 H          1.0936827641       -1.6644354208       -0.7392957894
 H          2.3558374512       -2.7035596965       -0.0966867983
 H          3.4417702421       -0.2196259611        0.4547233450
 H          3.8220305727       -1.2002032665       -0.9446659595
 H          2.4681778309        0.1275453941       -2.4054883233
 H          0.8692359482        3.4321269573       -1.6979646302
 H          1.6488436815        2.4643852552       -2.9506055318
 H          0.1087993558        1.9414155381       -2.2590108282
 H          1.9632530100        1.2461251595        1.1262023269
 H          1.5853505868        2.9229019483        0.7242275102
 H         -0.2528902871        1.4932627705        1.7796828540
 H         -2.9555019151       -0.6847454150       -1.4491210557
 H         -3.7998437877        0.9473470277       -1.6281139337
 H         -0.0365533755        0.1159663793       -0.8694109471
