44
Energy: 4.941217
 C         -3.1452649236       -3.6219968744        0.5221213820
 C         -2.1250380143       -2.6594785437       -0.0287559204
 O         -1.9192651554       -2.4828466827       -1.2004890846
 O         -1.5028139127       -2.0256430999        0.9691349505
 C         -0.5008104932       -1.0223602788        0.7026579616
 C          0.6676930872       -1.6345753253       -0.0155915370
 C          1.9417327408       -1.6593252760        0.3569455242
 C          2.9740689100       -2.3007764556       -0.5198583978
 C          2.4785915700       -1.0652674718        1.6318653411
 C          2.3947078839        0.4649793842        1.6784893475
 C          3.0040545980        1.1337934718        0.4657358599
 O          2.6100512216        2.4494046331        0.1573154493
 C          2.3962290104        1.4810481523       -0.8353455988
 C          3.3438045027        1.5547597836       -2.0235447448
 C          0.9761506713        1.1951410621       -1.3134824509
 C         -0.1578920286        1.3541746273       -0.3047671538
 O         -1.0476511052        2.3945318901       -0.7281174893
 C         -2.2900311585        2.1648110405       -0.2655481346
 O         -3.1909644305        2.9468740744       -0.3656917106
 C         -2.3280797770        0.8050101324        0.3576448730
 C         -3.2928397423        0.4134940670        1.1740225519
 C         -1.0789824738        0.1291713940       -0.1330083613
 H         -3.1481116463       -4.5286980073       -0.0759119545
 H         -4.1288531002       -3.1617962252        0.4444043629
 H         -2.9336109407       -3.8469825592        1.5624483573
 H         -0.2375556122       -0.6768315635        1.7058332906
 H          0.3858625511       -2.1094097170       -0.9455396435
 H          3.4590612864       -3.1192773137        0.0108943988
 H          2.5343012203       -2.6921078346       -1.4327930495
 H          3.7412961699       -1.5729834213       -0.7802215117
 H          3.5223899556       -1.3630537218        1.7425495664
 H          1.9277008367       -1.4631944624        2.4872276983
 H          1.3646195994        0.7810233214        1.8101250407
 H          2.9499584401        0.8187700082        2.5521284166
 H          4.0881175612        0.9956403341        0.4350412912
 H          4.3504010181        1.8010574367       -1.6961569375
 H          3.3603225304        0.6001787763       -2.5445479763
 H          3.0149298498        2.3263550946       -2.7155085425
 H          0.7692093960        1.9039525268       -2.1198200233
 H          0.9631903786        0.1912813635       -1.7393898710
 H          0.2389665929        1.6841820225        0.6616063526
 H         -3.3065549922       -0.5535581517        1.6452103966
 H         -4.1049458669        1.0874634801        1.3910572450
 H         -1.2960686539       -0.2687932848       -1.1343342796
