44
Energy: 1.761444
 C          1.1412639484       -2.4084429946       -2.9449577532
 C         -0.0605541658       -1.9382545763       -2.1703229828
 O         -1.1833132267       -1.8872041080       -2.5980497729
 O          0.2802854867       -1.5740839659       -0.9275648942
 C         -0.7816649812       -1.1752296751       -0.0589601635
 C         -0.4806520926       -1.4715902009        1.3800546794
 C          0.6865323315       -1.6159410232        2.0011549730
 C          0.7231225117       -1.8385397570        3.4844540266
 C          2.0470799049       -1.5747170364        1.3566915841
 C          2.6295300065       -0.1500803145        1.2267199097
 C          2.6396778243        0.3518974458       -0.2016252608
 O          3.1159434600        1.6529724253       -0.4303470355
 C          1.7876383795        1.3852748368       -0.8187661223
 C          1.5945166189        1.3467193572       -2.3244738491
 C          0.7099202014        2.1519006251       -0.0624051660
 C         -0.3546480738        1.2979361243        0.6277843566
 O         -1.3130068525        2.1771454008        1.2214601479
 C         -2.5766628317        1.8106525570        0.9592427334
 O         -3.5321579086        2.3775161629        1.4092896799
 C         -2.5681112126        0.6375968081        0.0438809555
 C         -3.6692648847        0.0578749939       -0.4106171724
 C         -1.1352670261        0.3227085270       -0.2749016441
 H          1.6690577377       -1.5445913202       -3.3431261022
 H          0.8153217324       -3.0313580085       -3.7724627093
 H          1.8153904656       -2.9577227365       -2.2947413744
 H         -1.6674495679       -1.7542514574       -0.3576702587
 H         -1.3880477294       -1.5030941975        1.9706789859
 H          1.3891420863       -1.1140760122        3.9510929858
 H         -0.2636762504       -1.7473957714        3.9295831877
 H          1.1124979998       -2.8322259983        3.7040333991
 H          2.0058696191       -2.0293041932        0.3698340584
 H          2.7223610456       -2.1711859222        1.9722372618
 H          2.1142028912        0.5529735281        1.8798976169
 H          3.6760136044       -0.1648322835        1.5433553619
 H          3.0575864516       -0.3849704526       -0.8904648435
 H          1.4834763064        2.3600418685       -2.7054280176
 H          2.4677725078        0.9039198779       -2.7980827675
 H          0.7131404279        0.7724000300       -2.5981241156
 H          1.1909580241        2.7655336002        0.7019450226
 H          0.2101458201        2.8309951294       -0.7569284910
 H          0.0971142292        0.7420119877        1.4549889259
 H         -3.6437164058       -0.7662604156       -1.1037143480
 H         -4.6326709266        0.4203406077       -0.0945922948
 H         -0.9556720400        0.5463883106       -1.3301023389
