44
Energy: 2.567769
 C         -3.5242950767       -2.2819447301        1.6582147871
 C         -2.2153640462       -1.5448191983        1.6369235035
 O         -1.8480668480       -0.7545587150        2.4673836312
 O         -1.4992593285       -1.8726762782        0.5577494499
 C         -0.2418166699       -1.2119023287        0.3741313599
 C          0.6109421563       -2.0921740217       -0.4884723424
 C          1.9278777630       -2.2594201282       -0.4515150515
 C          2.5865057136       -3.1443386339       -1.4713557638
 C          2.8968382459       -1.7148040085        0.5707101381
 C          2.7886626478       -0.2458888571        0.9921197695
 C          2.8331730357        0.7373667099       -0.1631758509
 O          3.2671527865        2.0387315952        0.1409661060
 C          1.9358289591        1.9037757278       -0.2921270011
 C          1.6445960503        2.5148035984       -1.6489249523
 C          0.8761169930        2.1670412391        0.7662160023
 C         -0.4441089532        1.3917397291        0.5975607873
 O         -1.4219292837        2.2821390718        0.0508909927
 C         -2.1987237732        1.6851803854       -0.8618373332
 O         -3.1341454770        2.2204225499       -1.3883081207
 C         -1.6954470057        0.3055318067       -1.1105241717
 C         -2.3241728847       -0.5513375829       -1.9006020537
 C         -0.4182224768        0.1574286105       -0.3353859918
 H         -4.2602417107       -1.6827140889        1.1242906175
 H         -3.8579687422       -2.4087936009        2.6836686218
 H         -3.4252560538       -3.2406002708        1.1589866405
 H          0.1935145204       -1.0617366546        1.3666940513
 H          0.0442153821       -2.5916354420       -1.2614510445
 H          3.1436395837       -3.9379804784       -0.9754618598
 H          1.8587258099       -3.5951528788       -2.1396890369
 H          3.2934435476       -2.5666127186       -2.0660530412
 H          3.9061412761       -1.8793560980        0.1873554542
 H          2.7976026969       -2.3214177449        1.4766730077
 H          1.8970369779       -0.0818441910        1.5917044639
 H          3.6473978460       -0.0262653780        1.6333007687
 H          3.2646241139        0.3351650886       -1.0795287487
 H          0.6243108268        2.3113069082       -1.9631111170
 H          1.7716413571        3.5938271577       -1.5842389459
 H          2.3339867646        2.1353968279       -2.3996785826
 H          1.3056682054        1.9666768892        1.7472161412
 H          0.6214463000        3.2288031515        0.7396896994
 H         -0.8151392609        1.0978558662        1.5883825419
 H         -1.9660594888       -1.5482904191       -2.0852059280
 H         -3.2416661339       -0.2507127206       -2.3787190451
 H          0.4177326044        0.2490083141       -1.0341358610
