44
Energy: 0.974980
 C         -2.7984793671       -2.0659481820        2.5928467169
 C         -1.4342754468       -1.8035121498        2.0103335052
 O         -0.3881068471       -2.0819188685        2.5318791079
 O         -1.5408415448       -1.2010564296        0.8215380804
 C         -0.3092864176       -0.8746819236        0.1604838156
 C          0.3141274615       -2.1030009075       -0.4366387721
 C          1.6066583484       -2.4056135155       -0.3711205019
 C          2.1542502273       -3.6465077472       -1.0042062685
 C          2.6147404368       -1.5226647941        0.3168358401
 C          2.8797032348       -0.2182294193       -0.4699239511
 C          2.9080008003        0.9920296532        0.4369337765
 O          1.8205679477        1.2059198434        1.3041391843
 C          2.0294224262        2.1712308784        0.3045985653
 C          2.5432513831        3.5111022965        0.7920330733
 C          0.9644106758        2.2817972603       -0.7860033839
 C         -0.3768309962        1.6403679510       -0.4002906397
 O         -1.4336903807        2.4325725086       -0.9413864100
 C         -2.4154135153        1.6776252524       -1.4625732100
 O         -3.4302373540        2.1376798606       -1.9049106318
 C         -2.0165646027        0.2447844483       -1.4121779194
 C         -2.8176182336       -0.7379740930       -1.7932769934
 C         -0.6026378148        0.1992075888       -0.9093051757
 H         -3.2813956919       -1.1161310377        2.8104752112
 H         -2.7005883092       -2.6459344638        3.5049863476
 H         -3.4099044971       -2.5980031679        1.8690912501
 H          0.3664986885       -0.4513674345        0.9116259690
 H         -0.3763459455       -2.7654533246       -0.9401594568
 H          2.5995580228       -4.2838085063       -0.2413031560
 H          1.3783843944       -4.2083536355       -1.5170768357
 H          2.9350500760       -3.3886145400       -1.7191618400
 H          3.5477250010       -2.0697594655        0.4492806870
 H          2.2396458263       -1.2672705604        1.3096685299
 H          3.8386319635       -0.2737541340       -0.9872916726
 H          2.1047841921       -0.0987238552       -1.2245859508
 H          3.8714027719        1.1571282137        0.9183622611
 H          3.0419838337        4.0342698400       -0.0208052760
 H          1.7150798690        4.1190287436        1.1494070093
 H          3.2452517334        3.3721370064        1.6102717852
 H          0.7628285831        3.3409016442       -0.9539110890
 H          1.3285481221        1.8672393281       -1.7284907694
 H         -0.4791460671        1.6713044608        0.6926692355
 H         -2.5233824115       -1.7719149463       -1.7632441900
 H         -3.8112739015       -0.5082732314       -2.1395409223
 H          0.0522489619        0.0066550539       -1.7675847485
