44
Energy: 3.279051
 C         -1.4231599682       -4.4267287290       -0.4187552660
 C         -1.5945554887       -3.2011135265        0.4408495586
 O         -2.1540591187       -3.1748267070        1.5033439220
 O         -1.0360003416       -2.1343629246       -0.1407722601
 C         -1.0742507245       -0.8881337519        0.5845619247
 C          0.0825785378       -0.7921959759        1.5474466133
 C          1.3588986888       -1.0907753308        1.3184511958
 C          2.3639707494       -1.0438871031        2.4280069835
 C          1.8735774928       -1.5429613946       -0.0189930859
 C          3.1816135929       -0.8738299837       -0.4706345060
 C          3.2977604836        0.6397891144       -0.3836018334
 O          2.5301545471        1.3714038717        0.5336830398
 C          2.3307186907        1.6578026558       -0.8303278945
 C          2.8446459816        3.0079018386       -1.2860872094
 C          0.9794564366        1.2790230441       -1.4266427441
 C         -0.1491479543        1.3620800323       -0.3888616125
 O         -0.8549783244        2.5902901444       -0.5668724304
 C         -2.1847752677        2.4224611549       -0.5637998423
 O         -2.9630316921        3.3292687051       -0.6612960322
 C         -2.4958101147        0.9719097408       -0.4371649735
 C         -3.7286914642        0.5020328506       -0.3204755771
 C         -1.1918636946        0.2290072224       -0.4822651011
 H         -1.2758724606       -4.1452548000       -1.4565118198
 H         -2.2910784082       -5.0706115849       -0.3116863860
 H         -0.5475304356       -4.9708741982       -0.0699036823
 H         -1.9927634833       -0.9013685996        1.1849621846
 H         -0.2094851486       -0.4987381385        2.5456002986
 H          1.8725314067       -0.9535664816        3.3924320540
 H          2.9737774752       -1.9459345010        2.4255895668
 H          3.0189265743       -0.1851248497        2.2975083455
 H          1.0971301654       -1.4233501445       -0.7694441817
 H          2.0820575300       -2.6167467667        0.0487891537
 H          3.9987648423       -1.2768577767        0.1323270816
 H          3.3774997695       -1.1585429825       -1.5087414791
 H          4.3445766494        0.9517538728       -0.4127627230
 H          3.7471079813        3.2746197869       -0.7418339950
 H          3.0644528885        2.9845682760       -2.3513967626
 H          2.0881203784        3.7657496609       -1.0952888037
 H          0.7485969081        1.9770776377       -2.2324943068
 H          1.0281641012        0.2803971415       -1.8563184732
 H          0.2942538864        1.3866742625        0.6145516698
 H         -3.9448536194       -0.5496703369       -0.2337935513
 H         -4.5609768046        1.1850504864       -0.3084120282
 H         -1.1103868902       -0.2651849564       -1.4578407230
