44
Energy: 0.288874
 C         -1.9298683684       -4.0728535131       -0.5782097849
 C         -1.7374810183       -3.0042204531        0.4656023108
 O         -2.0398194910       -3.1023823737        1.6233512683
 O         -1.1797309397       -1.9105066940       -0.0692907609
 C         -0.9245525640       -0.8133448137        0.8266830764
 C          0.2374860128       -1.1157806008        1.7350292133
 C          1.4526954305       -1.5174106405        1.3747865207
 C          2.4596629677       -1.8865719815        2.4246287906
 C          1.9291368345       -1.7027334373       -0.0413743115
 C          3.0143114269       -0.6805913469       -0.4423171568
 C          2.5696141601        0.4347888250       -1.3691133618
 O          3.2351927400        1.6615931606       -1.1947781340
 C          1.8458973211        1.6613996360       -0.9785876030
 C          1.0603223636        2.4178552541       -2.0350482498
 C          1.3927220892        1.8793572817        0.4556440661
 C         -0.0983120706        1.6210283374        0.7016434443
 O         -0.8543762767        2.7711611843        0.3282900909
 C         -1.9423201771        2.4589683222       -0.3935811688
 O         -2.7362085026        3.2723461797       -0.7726462889
 C         -1.9677605115        0.9889174692       -0.6324156110
 C         -2.9657501067        0.3749698998       -1.2502118520
 C         -0.7026833000        0.4211387371       -0.0587546881
 H         -2.9509166341       -4.4423820309       -0.5302828886
 H         -1.2625454864       -4.9024170996       -0.3546899774
 H         -1.7110977157       -3.6833116278       -1.5671520800
 H         -1.8220908587       -0.6761258745        1.4433969299
 H          0.0062409953       -1.0459422943        2.7881752571
 H          2.1373488629       -1.5654238349        3.4109381873
 H          2.5819252960       -2.9695882671        2.4414991643
 H          3.4343431212       -1.4527567868        2.2128811127
 H          1.0982689273       -1.6647362708       -0.7429371983
 H          2.3622850539       -2.7040302202       -0.1063721135
 H          3.4505311225       -0.2207752028        0.4447638557
 H          3.8257270799       -1.1995572268       -0.9571861150
 H          2.4681764702        0.1306043963       -2.4116699542
 H          0.1078557622        1.9416153100       -2.2568459788
 H          0.8673951456        3.4321070463       -1.6941438688
 H          1.6458025075        2.4681203457       -2.9503336374
 H          1.9695897487        1.2409478864        1.1231663994
 H          1.5926454022        2.9190446843        0.7257209883
 H         -0.2450485987        1.4922355618        1.7828651466
 H         -2.9706322170       -0.6875348966       -1.4205105213
 H         -3.8097501753        0.9469525137       -1.5975345570
 H         -0.0373513711        0.1168519959       -0.8690376397
