44
Energy: 2.634693
 C         -3.5608040496       -3.1172660644        0.2313685424
 C         -2.5386251714       -2.1472683083        0.7580445020
 O         -2.6160651567       -1.5579715731        1.8015543386
 O         -1.5082968009       -2.0307318809       -0.0923984390
 C         -0.4653008049       -1.1166883856        0.2571945089
 C          0.8276030669       -1.8085159870       -0.0633978130
 C          2.0021890049       -1.7074367751        0.5497651507
 C          3.1399781581       -2.6073468222        0.1610258522
 C          2.3031902608       -0.7621166444        1.6785169077
 C          3.0556403190        0.5166158856        1.2237478342
 C          3.1405743840        0.6987179101       -0.2768550529
 O          3.4710356780        1.9736017135       -0.7627609821
 C          2.2183500567        1.4536703847       -1.1446428034
 C          2.1415381082        1.0267153064       -2.6003399669
 C          1.0079463942        2.2130414911       -0.6179806153
 C          0.0147977160        1.3933454590        0.2112779870
 O         -1.0391466298        2.2609367840        0.6252860312
 C         -2.2339977802        1.8866345128        0.1409717217
 O         -3.2441219384        2.5017851547        0.3289550281
 C         -2.0673845313        0.6404297697       -0.6552505345
 C         -3.0530419153        0.0946253975       -1.3525944593
 C         -0.6360734108        0.2107038733       -0.5355897325
 H         -3.8161074590       -3.8281322298        1.0128291038
 H         -3.1792941313       -3.6340240290       -0.6431267205
 H         -4.4622325003       -2.5658485006       -0.0273568353
 H         -0.5684815111       -0.9045799832        1.3291827495
 H          0.7202076735       -2.5119962032       -0.8784893103
 H          2.9963547564       -3.0269202432       -0.8307004725
 H          4.0905045413       -2.0812125237        0.1946057846
 H          3.1988675349       -3.4317890121        0.8724568514
 H          2.9238707612       -1.2869879435        2.4071379110
 H          1.3790512734       -0.4873916164        2.1865744614
 H          2.6058448569        1.4044921192        1.6672281124
 H          4.0866928549        0.4742584004        1.5832290268
 H          3.6936058564       -0.0954188631       -0.7772190890
 H          1.5140306987        0.1459216824       -2.7162258672
 H          1.7428187359        1.8314860660       -3.2132344954
 H          3.1391959691        0.7882848431       -2.9611322026
 H          1.3608610281        3.0354288263        0.0076167925
 H          0.4717942872        2.6535845936       -1.4615859994
 H          0.4993105755        1.0544765376        1.1277760699
 H         -2.9192578911       -0.7891469048       -1.9526183376
 H         -4.0320421528        0.5432268439       -1.3247582739
 H         -0.1998993391        0.0719064576       -1.5254979493
