44
Energy: 4.929915
 C         -3.8051461305       -2.2056312143        1.5992780631
 C         -2.4479067585       -1.5636005021        1.6599975703
 O         -2.0839989623       -0.7867242954        2.5043738150
 O         -1.6858854499       -1.9613809685        0.6378334355
 C         -0.3702785529       -1.4115295781        0.5254516180
 C          0.4860943844       -2.4393305340       -0.1586836118
 C          1.8045992595       -2.3722602043       -0.3068878772
 C          2.5712312378       -3.4629096689       -0.9891564908
 C          2.6305095264       -1.1979302847        0.1466965169
 C          2.9119564410       -0.2523646067       -1.0391150962
 C          2.7946869782        1.2513226102       -0.8441726328
 O          3.3251970858        1.8956378581        0.2816730448
 C          1.9536184644        2.1150677506        0.0129141248
 C          1.6204087031        3.4942454938       -0.5299882805
 C          0.9990869154        1.6859707766        1.1194642894
 C         -0.3816229238        1.1695465343        0.7114108831
 O         -1.1329539367        2.1802203081        0.0367440792
 C         -1.8977393985        1.6573937801       -0.9356798585
 O         -2.6858246841        2.3009133146       -1.5701498816
 C         -1.5786351602        0.2098767617       -1.0919806682
 C         -2.2530415865       -0.6058943512       -1.8874610786
 C         -0.3854262508       -0.0561939826       -0.2237694750
 H         -4.4575972606       -1.5665813742        1.0062288153
 H         -4.2169393541       -2.2886209164        2.6005594838
 H         -3.7417424226       -3.1786583359        1.1225075118
 H         -0.0017509832       -1.2305170203        1.5466325856
 H         -0.0620397045       -3.2942231633       -0.5260324795
 H          3.2779245081       -3.9113317638       -0.2918252052
 H          1.9096396773       -4.2398663696       -1.3612879886
 H          3.1434411493       -3.0578812993       -1.8223328826
 H          3.5793857092       -1.5560645006        0.5478664015
 H          2.1199853207       -0.6714603724        0.9457050878
 H          3.9358479661       -0.4208605270       -1.3835216903
 H          2.2598488108       -0.5101460629       -1.8802098647
 H          3.0890234305        1.7392429893       -1.7801390279
 H          1.6477354860        4.2227226236        0.2774358666
 H          2.3394200497        3.7977732101       -1.2866087689
 H          0.6228739932        3.4943885174       -0.9606577535
 H          1.4758462489        0.9359846416        1.7504093310
 H          0.8375829955        2.5668127490        1.7462538123
 H         -0.9283458146        0.9318756685        1.6354469095
 H         -2.0020578684       -1.6469645415       -1.9912228237
 H         -3.0901939411       -0.2289249211       -2.4507687424
 H          0.4991692140       -0.0093887719       -0.8596430324
