44
Energy: 5.716693
 C         -3.7575193310       -2.1303524112        1.4002123684
 C         -2.4226075256       -1.4429532465        1.3961488943
 O         -2.1104572237       -0.5178902750        2.0960509256
 O         -1.5960032371       -1.9935016965        0.4929576814
 C         -0.3204626231       -1.3643327972        0.3328290697
 C          0.6106366714       -2.4227206166       -0.1871032878
 C          1.8679517484       -2.3205174122       -0.6085829517
 C          2.6022503040       -3.5462161657       -1.0673887643
 C          2.6796746789       -1.0499250739       -0.6900979080
 C          2.7623008129       -0.2966422691        0.6416801626
 C          3.1678109507        1.1482007605        0.4648931164
 O          2.5412108898        2.1182867968        1.2685478714
 C          2.3436308444        2.2252423025       -0.1152848264
 C          3.0843729146        3.3695339934       -0.7894608923
 C          0.9319651435        2.0923256854       -0.6800104446
 C         -0.0884836501        1.2363807322        0.0881633008
 O         -1.3094551455        1.9764839670        0.1564185026
 C         -2.3114825273        1.3865450309       -0.4999359132
 O         -3.4144845234        1.8489801451       -0.5937487604
 C         -1.8245143801        0.1086674817       -1.0874062449
 C         -2.5504575054       -0.6487493289       -1.8957284966
 C         -0.4249927381       -0.1133148697       -0.5949598338
 H         -4.4687947499       -1.4860693330        0.8860135038
 H         -4.0979687790       -2.2607403637        2.4236213548
 H         -3.6951164339       -3.0843242067        0.8869050799
 H         -0.0205664064       -1.0357310146        1.3392112658
 H          0.1468152436       -3.3995276392       -0.1865037521
 H          1.9732378724       -4.4303667476       -1.0222567058
 H          2.9482258069       -3.4146091612       -2.0921044030
 H          3.4782371571       -3.7094586989       -0.4407540108
 H          2.2563091835       -0.3883349070       -1.4482042544
 H          3.6901446793       -1.2953392539       -1.0209660316
 H          1.8087262090       -0.3257637284        1.1558477013
 H          3.4916990394       -0.7856542526        1.2903498234
 H          4.2458615552        1.2898027078        0.3753943342
 H          2.5372036498        4.2998434528       -0.6566565069
 H          4.0719041393        3.4911974244       -0.3527286093
 H          3.1882521405        3.1716112239       -1.8540763275
 H          0.5163798053        3.1040684803       -0.6905712044
 H          1.0053650625        1.7645771781       -1.7202726525
 H          0.2402070520        1.1267251342        1.1266419009
 H         -2.1794766233       -1.5704192715       -2.3106313489
 H         -3.5525152336       -0.3475349977       -2.1511070381
 H          0.2288850125       -0.2872332458       -1.4497282605
