44
Energy: 1.319232
 C         -0.9620661985       -4.1351077636       -1.2953215158
 C         -1.5075390926       -2.9726004973       -0.5085094479
 O         -2.6623698581       -2.8260977436       -0.2065212946
 O         -0.5287438859       -2.1257192272       -0.1788389590
 C         -0.8653511343       -0.9828697659        0.6184678784
 C          0.1660863670       -0.7329286780        1.6818244482
 C          1.4573674580       -1.0503636037        1.7180948614
 C          2.2843300802       -0.6761643225        2.9098013853
 C          2.2138707521       -1.7801899572        0.6380786452
 C          2.2309588376       -1.0363233199       -0.7037088343
 C          2.9479136301        0.2930405252       -0.6325627965
 O          2.5975768716        1.2187151847        0.3663731229
 C          2.3052474969        1.5802190223       -0.9570404021
 C          3.1437803122        2.6984511147       -1.5390170178
 C          0.8292391848        1.6410606550       -1.3584622612
 C         -0.1424342555        1.4259039959       -0.1852048085
 O         -0.9350718117        2.6061119189       -0.0394100946
 C         -2.2468539915        2.3451084041        0.0464922238
 O         -3.0776506454        3.1973588141        0.1962718528
 C         -2.4646744502        0.8811271260       -0.0812759610
 C         -3.6586747689        0.3106772220       -0.0062581896
 C         -1.1265077031        0.2392051753       -0.3190859600
 H         -0.0179283269       -3.8693429738       -1.7602830826
 H         -1.6885692681       -4.4435419676       -2.0415117369
 H         -0.8009655431       -4.9670074339       -0.6120180212
 H         -1.8144337395       -1.2183298423        1.1195463616
 H         -0.2554500832       -0.2036546678        2.5269803036
 H          1.6811984808       -0.2191617612        3.6891201791
 H          2.7821535088       -1.5549416250        3.3178665763
 H          3.0484008966        0.0349604713        2.5992140031
 H          1.7573817644       -2.7580229859        0.4750045423
 H          3.2420782227       -1.9348565974        0.9692598695
 H          2.7473868663       -1.6507642767       -1.4446310910
 H          1.2068333613       -0.8962891853       -1.0351929542
 H          4.0245933618        0.2256959448       -0.7880430782
 H          3.1073332568        2.6619118603       -2.6256104463
 H          2.7620821634        3.6601672113       -1.2034620997
 H          4.1770633539        2.6063327392       -1.2140181375
 H          0.6310561506        2.6394883238       -1.7520783700
 H          0.6429062762        0.9281771595       -2.1648014258
 H          0.4486923170        1.3305158087        0.7340683299
 H         -3.8006142378       -0.7525486979       -0.1109852968
 H         -4.5286975456        0.9218824798        0.1649288085
 H         -1.1057318983       -0.1470493880       -1.3454263468
