44
Energy: 2.704340
 C         -3.4843053752       -2.3361783477        1.7301137989
 C         -2.2046951613       -1.5510777592        1.6626413826
 O         -1.8295705303       -0.7606755312        2.4895894352
 O         -1.5104800045       -1.8598270250        0.5640879836
 C         -0.2502152294       -1.2062882072        0.3728787077
 C          0.5959729714       -2.0937921980       -0.4890194845
 C          1.9130028519       -2.2624412008       -0.4619659509
 C          2.5603799114       -3.1560021627       -1.4817747920
 C          2.8947325664       -1.7162325146        0.5473048708
 C          2.7858041943       -0.2524154454        0.9851868616
 C          2.8279578739        0.7447308076       -0.1582825058
 O          3.2588672188        2.0432339072        0.1626108784
 C          1.9289932116        1.9112074695       -0.2756739894
 C          1.6410852651        2.5366105542       -1.6264975665
 C          0.8652980171        2.1607080029        0.7819114314
 C         -0.4573750713        1.3961896377        0.5898337940
 O         -1.4180811420        2.2920679092        0.0225257323
 C         -2.1858427519        1.6955382910       -0.8987043794
 O         -3.1056288460        2.2368241204       -1.4457252212
 C         -1.6921371840        0.3088808058       -1.1280936195
 C         -2.3214459289       -0.5513175641       -1.9138842992
 C         -0.4224935204        0.1606245159       -0.3405978786
 H         -3.2969082383       -3.2598335339        2.2749659322
 H         -3.8267773754       -2.5806805250        0.7296564686
 H         -4.2344882757       -1.7636930362        2.2673646592
 H          0.1891909758       -1.0535289334        1.3631965188
 H          0.0230762142       -2.5986670332       -1.2538929208
 H          3.2591235332       -2.5826738282       -2.0902759215
 H          3.1245969267       -3.9444777065       -0.9856836282
 H          1.8251390090       -3.6135925525       -2.1372126860
 H          3.8986035186       -1.8703999407        0.1455326193
 H          2.8156225637       -2.3318422232        1.4493312221
 H          1.8965066180       -0.0956757804        1.5900035847
 H          3.6466967350       -0.0399985658        1.6260301094
 H          3.2623336839        0.3544628293       -1.0784977129
 H          2.3441920551        2.1786589180       -2.3750594776
 H          0.6275509336        2.3211652708       -1.9541825452
 H          1.7499343023        3.6165039027       -1.5456887998
 H          1.2872104999        1.9389134114        1.7615870139
 H          0.6165073984        3.2241565170        0.7740868127
 H         -0.8479531059        1.1064660690        1.5744255466
 H         -1.9698216316       -1.5531017618       -2.0847632687
 H         -3.2326485735       -0.2484537201       -2.4024367205
 H          0.4198266986        0.2525517695       -1.0318954540
