44
Energy: 2.436331
 C         -3.4829892431       -2.8765839356        1.5767009803
 C         -2.3408701018       -1.9008788463        1.4813836224
 O         -2.1127844524       -1.0235743608        2.2693703079
 O         -1.5937707708       -2.1436324695        0.3954546821
 C         -0.4686265850       -1.2891683176        0.1747998832
 C          0.6037811555       -2.1437063492       -0.4380942772
 C          1.9156810798       -2.1091309373       -0.2286289573
 C          2.8145134878       -3.1031135806       -0.9052358745
 C          2.6221187892       -1.1471124955        0.6850907381
 C          3.6088635894       -0.2160382773       -0.0545292342
 C          3.4147750057        1.2598370997        0.2726544363
 O          2.3470910531        1.6444861917        1.0948487671
 C          2.2917955487        2.0643182494       -0.2464064521
 C          2.4620345034        3.5493097583       -0.4768655307
 C          1.2267047751        1.4061559997       -1.1157226579
 C         -0.0787756040        1.1824703827       -0.3491796937
 O         -0.9758931686        2.2698498258       -0.5556712438
 C         -2.2406673274        1.8447562348       -0.6962185543
 O         -3.1786006046        2.5851746785       -0.7863319605
 C         -2.2578407152        0.3554274968       -0.7865665543
 C         -3.3788353503       -0.3222109764       -0.9863021646
 C         -0.8288508527       -0.1027109400       -0.7603600072
 H         -3.3811754649       -3.6555188820        0.8280440213
 H         -4.4164391153       -2.3377026500        1.4287603248
 H         -3.5006588828       -3.3088226205        2.5738163532
 H         -0.1725873522       -0.8936798054        1.1535425701
 H          0.1970951840       -2.8811004975       -1.1180634465
 H          3.5998588961       -2.6025261688       -1.4685194451
 H          3.2988670691       -3.7258668013       -0.1540205363
 H          2.2567008594       -3.7462049954       -1.5800752822
 H          3.1751361511       -1.7274952465        1.4268125614
 H          1.9056420508       -0.5303179779        1.2240643032
 H          4.6337508376       -0.4807399975        0.2054728776
 H          3.5113166682       -0.3411817229       -1.1361068123
 H          4.3400589743        1.7929090617        0.4845143016
 H          2.8602160782        3.7302776702       -1.4730551588
 H          1.4966369342        4.0418330145       -0.3846587350
 H          3.1400497492        3.9705745526        0.2609363818
 H          1.0253499750        2.0441306617       -1.9763896862
 H          1.5810647259        0.4402664155       -1.4757943040
 H          0.1426390135        1.1616802303        0.7265358954
 H         -3.4033156777       -1.3881260572       -1.1295695088
 H         -4.3151214442        0.2109363139       -1.0067621613
 H         -0.5503083257       -0.3852881504       -1.7836423047
