44
Energy: 3.456523
 C         -3.0888011979       -1.6863775892        2.4981435731
 C         -2.1074864111       -1.9246139668        1.3763660588
 O         -2.1951762075       -2.8261674321        0.5858086888
 O         -1.1598957100       -0.9884658163        1.4141234166
 C         -0.0946791254       -0.8427387221        0.4600869377
 C          0.4488707369       -2.1019936911       -0.1458532637
 C          1.7466159051       -2.3684486888       -0.2685520336
 C          2.2155139882       -3.6208104096       -0.9434561035
 C          2.8405023519       -1.4497835585        0.2154438948
 C          2.9971796717       -0.1966815511       -0.6777209043
 C          3.1532258383        1.0604924593        0.1498125109
 O          2.2167847587        1.3062707286        1.1721349273
 C          2.2501673365        2.2279629997        0.1107240446
 C          2.8223018450        3.5891103719        0.4526470402
 C          1.0231606650        2.2912507215       -0.7984246351
 C         -0.2262444067        1.6361203311       -0.1896337987
 O         -1.3739964935        2.4027307406       -0.5480574799
 C         -2.3959735060        1.6283036283       -0.9476912023
 O         -3.4819794342        2.0628603022       -1.2118397270
 C         -1.9446809637        0.2130690793       -1.0312549661
 C         -2.7296570701       -0.7562920652       -1.4784971391
 C         -0.4959309530        0.1812064595       -0.6388411040
 H         -2.5767348101       -1.2961975910        3.3721467841
 H         -3.6063466102       -2.6113329649        2.7329481808
 H         -3.8165940501       -0.9490435341        2.1636701922
 H          0.6893425079       -0.3684251950        1.0608597337
 H         -0.2793667365       -2.8028692620       -0.5206277475
 H          2.8112149851       -4.2170100363       -0.2531335072
 H          1.3785414859       -4.2211316233       -1.2880796059
 H          2.8470335969       -3.3719063529       -1.7959889632
 H          3.7830446242       -1.9961818852        0.2480079377
 H          2.6166546439       -1.1221673805        1.2323643601
 H          3.8757917798       -0.2919816184       -1.3168903172
 H          2.1275216805       -0.1117262162       -1.3257966285
 H          4.1791566351        1.2541530629        0.4620249436
 H          3.1727655192        4.0808066399       -0.4519957539
 H          2.0573825480        4.2066704879        0.9180547840
 H          3.6521536792        3.4883669630        1.1475956281
 H          0.7760203440        3.3421895053       -0.9562559105
 H          1.2442423358        1.8590831965       -1.7767939788
 H         -0.1471664219        1.6821418384        0.9043954180
 H         -2.4069259624       -1.7777589856       -1.5761839558
 H         -3.7504739166       -0.5278734167       -1.7372837374
 H          0.0908710499       -0.0507646297       -1.5342557867
