44
Energy: 0.146247
 C         -3.0843128605       -1.9121594871        2.2778019860
 C         -1.9145033541       -1.1137645917        1.7677962405
 O         -1.5578188596       -0.0523948896        2.2051068878
 O         -1.3061387370       -1.7550323835        0.7671303334
 C         -0.1493614894       -1.1495621590        0.1740660162
 C          0.5624719370       -2.2440784841       -0.5652869078
 C          1.8765556698       -2.4361568624       -0.6117350553
 C          2.4745015785       -3.5492729385       -1.4158168233
 C          2.8622302303       -1.5428761756        0.0921879100
 C          3.0367642222       -0.1922269270       -0.6379608024
 C          3.0577817430        0.9581999128        0.3440489572
 O          2.0288951752        1.0151053950        1.3011643484
 C          2.0817087100        2.0647903205        0.3688592694
 C          2.5213634979        3.4036468219        0.9257024532
 C          0.9376842933        2.1627078673       -0.6375500181
 C         -0.3324434477        1.4234232381       -0.1936460577
 O         -1.4626856773        2.1987377482       -0.6005972527
 C         -2.4427093922        1.4413961586       -1.1063541837
 O         -3.5099612786        1.8753796253       -1.4414475353
 C         -1.9767351249        0.0304006628       -1.2044071632
 C         -2.7575739056       -0.9584085933       -1.6125319352
 C         -0.5352891595        0.0095290341       -0.7885875659
 H         -2.7159847998       -2.6684753608        2.9683736646
 H         -3.5844079072       -2.4093577702        1.4523112635
 H         -3.7700233943       -1.2558550109        2.8045845128
 H          0.4716376307       -0.7314144835        0.9743872700
 H         -0.0997342814       -2.9112076434       -1.0983651384
 H          3.0344112340       -4.2200476377       -0.7652470550
 H          1.7100262829       -4.1229672068       -1.9321542191
 H          3.1696425724       -3.1455295979       -2.1512086297
 H          3.8245788171       -2.0481071495        0.1722385338
 H          2.5076990215       -1.3392032470        1.1037900877
 H          3.9673037168       -0.1788628391       -1.2064185452
 H          2.2157477649       -0.0655423751       -1.3414217510
 H          4.0423629151        1.1654549793        0.7622710788
 H          2.9115341343        4.0288596388        0.1256461011
 H          1.6745901343        3.9054055081        1.3883455137
 H          3.2925318853        3.2658115081        1.6794323390
 H          0.6626502462        3.2142134551       -0.7320341766
 H          1.2565857282        1.8212421512       -1.6250873235
 H         -0.3557275479        1.3761686099        0.9025391239
 H         -2.4172275412       -1.9763732023       -1.6886308884
 H         -3.7813606753       -0.7492720864       -1.8746506086
 H          0.0750399526       -0.0974736241       -1.6937108662
