44
Energy: 2.323862
 C         -3.8596451451       -2.3356692541        1.1709787965
 C         -2.5617790348       -1.5957624773        1.3275796176
 O         -2.3370607789       -0.7429042439        2.1450846441
 O         -1.6515184659       -2.0250267141        0.4437860290
 C         -0.3712481429       -1.3987908770        0.4933822199
 C          0.6015275662       -2.2725828997       -0.2450511282
 C          1.9241377711       -2.1731120864       -0.1662622384
 C          2.8210839864       -3.0331950834       -1.0026486627
 C          2.6146100444       -1.2560844219        0.8048253554
 C          3.5396549270       -0.1898320699        0.1995162350
 C          2.9583783091        0.8395532959       -0.7598332217
 O          3.2771052869        2.1745125765       -0.4444398245
 C          1.9120854567        1.8460701642       -0.4758242573
 C          1.1696698599        2.4899512925       -1.6353214361
 C          1.1734773707        1.8626912495        0.8520647954
 C         -0.2154216694        1.2015962153        0.8208245404
 O         -1.1812968983        2.1832263170        0.4440485292
 C         -2.0458928566        1.7285463032       -0.4699066026
 O         -2.9740053443        2.3666019296       -0.8814629228
 C         -1.6416257531        0.3585625364       -0.8919681259
 C         -2.3158180674       -0.3485382916       -1.7866481306
 C         -0.3790653700        0.0157719879       -0.1595442154
 H         -4.0643958998       -2.5086018142        0.1188771511
 H         -4.6608184906       -1.7652246473        1.6303646673
 H         -3.7765814058       -3.2987207780        1.6713618042
 H         -0.1025362723       -1.2993876491        1.5532698583
 H          0.1392408934       -2.9758298581       -0.9211111319
 H          3.3797969457       -2.4184139178       -1.7070629402
 H          3.5410403730       -3.5558054235       -0.3751433645
 H          2.2483959229       -3.7648979937       -1.5649691495
 H          3.2487355748       -1.8784537714        1.4447825037
 H          1.8797722841       -0.7740179260        1.4442029181
 H          3.9815783184        0.3681989516        1.0284440643
 H          4.3596973186       -0.6855713875       -0.3233868116
 H          3.0973257729        0.5946777240       -1.8134255801
 H          1.8724044704        2.7014174355       -2.4382456833
 H          0.3739450005        1.8606643387       -2.0258917752
 H          0.7325053739        3.4299055132       -1.3063979249
 H          1.7929097678        1.3962595334        1.6164372625
 H          1.0197619474        2.9039143856        1.1465392748
 H         -0.4847954489        0.8916736351        1.8392838770
 H         -2.0088600882       -1.3314335157       -2.0999529713
 H         -3.2115435336        0.0636163800       -2.2206435366
 H          0.4515788469        0.0169837615       -0.8687640667
