44
Energy: 0.000000
 C         -3.1362258565       -1.8742445318        2.2176210041
 C         -1.9220068245       -1.1125610419        1.7588398825
 O         -1.5575388256       -0.0580893783        2.2066034087
 O         -1.3023677100       -1.7613243952        0.7699496502
 C         -0.1449331799       -1.1550159184        0.1791952058
 C          0.5685768850       -2.2483783729       -0.5600238988
 C          1.8831318950       -2.4367286654       -0.6086841726
 C          2.4828431146       -3.5495695323       -1.4118190754
 C          2.8673349621       -1.5392517865        0.0917889363
 C          3.0389081242       -0.1910104421       -0.6433962801
 C          3.0637941576        0.9625296770        0.3348817630
 O          2.0398882014        1.0214477405        1.2971560906
 C          2.0866809237        2.0681627883        0.3612653102
 C          2.5279909620        3.4094120351        0.9110263421
 C          0.9367717986        2.1615425101       -0.6389859462
 C         -0.3281544184        1.4183012839       -0.1868930762
 O         -1.4638731198        2.1913923627       -0.5829932540
 C         -2.4445746654        1.4330515116       -1.0850396132
 O         -3.5173377125        1.8636078059       -1.4073257455
 C         -1.9738785123        0.0245856924       -1.1952726130
 C         -2.7524092681       -0.9638203186       -1.6089836922
 C         -0.5315022284        0.0047502536       -0.7827069759
 H         -3.0250272984       -2.9310950611        1.9974263905
 H         -4.0015777531       -1.4880969556        1.6814079787
 H         -3.2894674023       -1.7122188139        3.2804047490
 H          0.4745393322       -0.7374919028        0.9810841883
 H         -0.0927961170       -2.9183093770       -1.0906585031
 H          3.0453948811       -4.2177300311       -0.7608329330
 H          1.7191631190       -4.1261606410       -1.9261373806
 H          3.1759310585       -3.1453021224       -2.1488454421
 H          3.8307528024       -2.0422217628        0.1732773535
 H          2.5126675591       -1.3324722491        1.1027091092
 H          3.9671814754       -0.1794653639       -1.2156039947
 H          2.2151465778       -0.0665456050       -1.3440534477
 H          4.0503185679        1.1723246083        0.7472116509
 H          2.9125702164        4.0324252392        0.1065305746
 H          1.6834655352        3.9116874605        1.3771999595
 H          3.3038815153        3.2749306923        1.6604878645
 H          0.6578023402        3.2120885512       -0.7327012501
 H          1.2514179002        1.8202634422       -1.6279609789
 H         -0.3428729515        1.3695260438        0.9093610347
 H         -2.4096807820       -1.9802459634       -1.6924607907
 H         -3.7772326352       -0.7560345511       -1.8683574692
 H          0.0772121420       -0.1019949843       -1.6888360593
