44
Energy: 4.416449
 C         -3.8200514475       -2.4474201570        1.2384760908
 C         -2.5080020313       -2.2895266872        0.5153439264
 O         -2.2282517577       -2.8313303800       -0.5210705271
 O         -1.7156501196       -1.4622125989        1.2034909623
 C         -0.4206146753       -1.0583246080        0.7457157892
 C          0.4550237732       -2.2144847145        0.3486257483
 C          1.7840756331       -2.2170622231        0.3144775168
 C          2.5378906349       -3.4428557402       -0.1040085499
 C          2.6404160543       -1.0258211791        0.6385535460
 C          2.9671438759       -0.2195831466       -0.6319625772
 C          3.3291814749        1.2235106111       -0.3326413256
 O          2.7519250461        1.8598580432        0.7806612921
 C          2.3864488477        2.3493690972       -0.4819350472
 C          2.9290872602        3.7158861326       -0.8452355507
 C          0.9411533817        2.1278170819       -0.9364321258
 C          0.0700519583        1.3885601414        0.0962081332
 O         -1.0563980905        2.1995730254        0.4344547242
 C         -2.2028527363        1.6952882782       -0.0464472399
 O         -3.2666050969        2.2343974840        0.0768304360
 C         -1.9069902493        0.4146986000       -0.7438972466
 C         -2.7429820846       -0.1515177700       -1.6011424051
 C         -0.5021630534        0.0317142173       -0.3787237983
 H         -4.3615080012       -1.5051279949        1.1869607505
 H         -3.6408361392       -2.6787608554        2.2846667900
 H         -4.4046734878       -3.2324014835        0.7692713185
 H         -0.0109326360       -0.5858538122        1.6474741052
 H         -0.0770512260       -3.1066023011        0.0582798563
 H          3.1881846486       -3.2145307202       -0.9473134672
 H          3.1676399098       -3.7906610998        0.7142309352
 H          1.8629478928       -4.2444228319       -0.3894578166
 H          3.5723736689       -1.3537673423        1.1016023061
 H          2.1336274240       -0.3693021162        1.3449227422
 H          3.8045405125       -0.6787811629       -1.1579926993
 H          2.1079999240       -0.2490185387       -1.3021257167
 H          4.3865935270        1.4551811352       -0.4491647032
 H          3.9559128761        3.8191881840       -0.5040942342
 H          2.8959099316        3.8518852371       -1.9238965923
 H          2.3305853539        4.4907983728       -0.3714863986
 H          0.4901876747        3.1098342333       -1.0906370731
 H          0.9372834323        1.6116026769       -1.8989627019
 H          0.6524978581        1.2973612193        1.0184718414
 H         -2.5015285189       -1.0514636973       -2.1402642280
 H         -3.7151078878        0.2851168404       -1.7609199161
 H          0.0228306701       -0.3523188486       -1.2540701095
