44
Energy: 0.904549
 C         -2.7937476666       -2.0948136051        2.5846372846
 C         -1.4316395886       -1.7985789963        2.0131256042
 O         -0.3844590484       -2.0665273781        2.5388631435
 O         -1.5394055069       -1.1976244501        0.8243669013
 C         -0.3091340475       -0.8722307163        0.1601515004
 C          0.3126799066       -2.1014624737       -0.4366400049
 C          1.6048516737       -2.4055741413       -0.3707431980
 C          2.1512654280       -3.6471175683       -1.0036149531
 C          2.6136764783       -1.5235938464        0.3173717385
 C          2.8792203891       -0.2189352867       -0.4688587578
 C          2.9070687590        0.9912222342        0.4381846533
 O          1.8187675841        1.2053733139        1.3041502550
 C          2.0289896390        2.1707231770        0.3049963703
 C          2.5422835401        3.5103741652        0.7935070927
 C          0.9655534526        2.2817035598       -0.7870606361
 C         -0.3770329199        1.6423025401       -0.4027810201
 O         -1.4318120986        2.4348638829       -0.9476023711
 C         -2.4147139035        1.6799799283       -1.4664256852
 O         -3.4287667645        2.1400931982       -1.9105422690
 C         -2.0187121926        0.2464741966       -1.4105908546
 C         -2.8228232452       -0.7363350451       -1.7851510229
 C         -0.6039553076        0.2006764977       -0.9099625845
 H         -3.5489155580       -1.4957348078        2.0858476938
 H         -2.7887303796       -1.8996402992        3.6532501568
 H         -3.0122996624       -3.1501150500        2.4328030707
 H          0.3676275240       -0.4485342134        0.9101593251
 H         -0.3785481582       -2.7628328304       -0.9405889965
 H          1.3749631225       -4.2080618513       -1.5168265395
 H          2.9325314720       -3.3900847921       -1.7183474408
 H          2.5957344696       -4.2849536863       -0.2406512402
 H          3.5463327099       -2.0713547851        0.4494027720
 H          2.2388409207       -1.2684747772        1.3103675346
 H          3.8384228052       -0.2744300528       -0.9857175967
 H          2.1046912038       -0.0993098010       -1.2239164819
 H          3.8700115282        1.1558318970        0.9207010964
 H          3.2428837739        3.3710036171        1.6128743820
 H          3.0424996422        4.0336002754       -0.0183652597
 H          1.7136028942        4.1183483792        1.1496461925
 H          0.7655965251        3.3409325770       -0.9561849851
 H          1.3303863436        1.8658665847       -1.7287183260
 H         -0.4817313358        1.6749578399        0.6899154622
 H         -2.5317430235       -1.7709624138       -1.7494742921
 H         -3.8164657928       -0.5058432613       -2.1310414139
 H          0.0493473837        0.0073982461       -1.7693609002
