44
Energy: 1.588082
 C          1.2077331581       -2.2885419807       -2.9993374810
 C         -0.0071579086       -1.8459410397       -2.2296037269
 O         -1.1241320814       -1.7913353658       -2.6723199622
 O          0.3096111358       -1.5349291744       -0.9662682487
 C         -0.7717795205       -1.1846326705       -0.1007939966
 C         -0.4863163916       -1.5136877811        1.3341379730
 C          0.6729891457       -1.6582957865        1.9698128424
 C          0.6891085905       -1.9146739292        3.4480615461
 C          2.0429213232       -1.5880098732        1.3480691749
 C          2.6140733153       -0.1549832066        1.2618712997
 C          2.6450656803        0.3755354301       -0.1554314826
 O          3.1032847598        1.6865841261       -0.3585819889
 C          1.7862946555        1.4020696825       -0.7745144086
 C          1.6159014892        1.3740031640       -2.2830107258
 C          0.6871785662        2.1463703371       -0.0260150398
 C         -0.3758860551        1.2748343602        0.6432908561
 O         -1.3417229728        2.1382686345        1.2482503931
 C         -2.6018457950        1.7612089552        0.9842949891
 O         -3.5625091105        2.3103836474        1.4451728120
 C         -2.5827842207        0.6013546032        0.0519945449
 C         -3.6792490633        0.0137295788       -0.4035735277
 C         -1.1476006533        0.3124005393       -0.2799771545
 H          1.2707473242       -3.3740696666       -2.9444639312
 H          2.1073095291       -1.8608797344       -2.5695224400
 H          1.1038571805       -2.0045466262       -4.0425194999
 H         -1.6427065307       -1.7704308499       -0.4284868760
 H         -1.4018729906       -1.5697323712        1.9102461143
 H          1.0869994608       -2.9085145192        3.6510384076
 H          1.3390872932       -1.1934344873        3.9415134484
 H         -0.3054782118       -1.8451935128        3.8796129438
 H          2.0209711648       -2.0205278308        0.3505598824
 H          2.7142855692       -2.1928382366        1.9597038411
 H          2.0789704975        0.5288543098        1.9194888693
 H          3.6543150360       -0.1666741262        1.5985613435
 H          3.0915439163       -0.3424167672       -0.8467791418
 H          2.5031332376        0.9532044686       -2.7500243925
 H          0.7529024576        0.7807887494       -2.5737516840
 H          1.4868575771        2.3877487181       -2.6567967010
 H          1.1502495825        2.7586601039        0.7505016744
 H          0.1887332180        2.8258237086       -0.7211232365
 H          0.0744890381        0.7058158997        1.4623821493
 H         -3.6482445857       -0.7991425489       -1.1095214349
 H         -4.6450747751        0.3599044725       -0.0768068070
 H         -0.9748998209        0.5646951691       -1.3301802961
