44
Energy: 5.679093
 C          0.7362481969       -3.6708093772       -2.0656544024
 C         -0.3072169149       -3.1832095140       -1.0960442125
 O         -1.0677714318       -3.8780593980       -0.4811176236
 O         -0.2759579848       -1.8451638262       -1.0036555428
 C         -1.1939034997       -1.2425548426       -0.0738572752
 C         -0.7413428308       -1.3653391403        1.3569707616
 C          0.4949096469       -1.3326224580        1.8468255479
 C          0.7359251998       -1.5647205039        3.3087438250
 C          1.7394533104       -1.0498882246        1.0477314023
 C          2.3529740411        0.3084379422        1.4551792689
 C          2.9050399395        1.1204402717        0.2982024140
 O          2.4432417380        2.4411177744        0.1376241935
 C          2.2072733335        1.5639819205       -0.9263985166
 C          3.0709969414        1.7957654967       -2.1575352037
 C          0.7816523268        1.2085979640       -1.3357805566
 C         -0.2983648673        1.1892957507       -0.2587132952
 O         -0.9279441150        2.4679173358       -0.1509814976
 C         -2.2348227119        2.3431746868        0.1224427654
 O         -2.9546082200        3.2695529659        0.3649243932
 C         -2.6165444138        0.8985568073        0.0481003383
 C         -3.7919437413        0.4388658040        0.4449672355
 C         -1.4375171612        0.1946049412       -0.5568288576
 H          1.7053563766       -3.6536850741       -1.5707133162
 H          0.7794997992       -3.0176770625       -2.9323200006
 H          0.5077819390       -4.6888608800       -2.3646506729
 H         -2.1383319877       -1.7964030674       -0.1655249824
 H         -1.5607783053       -1.5413757551        2.0398613855
 H         -0.1978668375       -1.6965848313        3.8475503923
 H          1.3421938443       -2.4601214894        3.4420456716
 H          1.2797264610       -0.7303924052        3.7474231896
 H          1.5147825647       -1.0429231034       -0.0145602707
 H          2.4676059245       -1.8433652444        1.2303630212
 H          1.6116666428        0.9233466687        1.9693186848
 H          3.1672204418        0.1472830632        2.1637327751
 H          3.9873671315        1.0301668402        0.1924675509
 H          2.6478220474        2.5920237181       -2.7654459958
 H          4.0756144618        2.0901755238       -1.8661904527
 H          3.1247631360        0.8874379955       -2.7538619415
 H          0.4690765472        1.9386304409       -2.0872846384
 H          0.8140501057        0.2273340386       -1.8144077889
 H          0.1200210008        0.9652240721        0.7230377570
 H         -4.0663377949       -0.6004927291        0.3848187746
 H         -4.5197558523        1.1224385669        0.8483854301
 H         -1.5875221722        0.1450855901       -1.6441363983
