44
Energy: 2.721345
 C         -1.6918960096       -4.2361916093       -0.8660147144
 C         -1.9476435113       -2.9975771512       -0.0483058689
 O         -2.9911782256       -2.7313184578        0.4870589285
 O         -0.8599306263       -2.2240326991       -0.0085396854
 C         -0.9239958003       -0.9944236302        0.7396121003
 C          0.2946895790       -0.8789587597        1.6181286935
 C          1.5619866791       -1.1385186679        1.3058076082
 C          2.6355196795       -1.0507399236        2.3466723336
 C          2.0030084866       -1.5877318142       -0.0579758849
 C          3.2608299438       -0.8909466742       -0.6005101235
 C          3.3418759780        0.6264509727       -0.5482625029
 O          2.6425029359        1.3524677538        0.4263105278
 C          2.3142339971        1.6155986262       -0.9178176685
 C          2.7532649146        2.9710619443       -1.4323722820
 C          0.9224403653        1.2027249424       -1.3839180563
 C         -0.1071748434        1.2932124406       -0.2502810655
 O         -0.8108457346        2.5307253005       -0.3551270973
 C         -2.1324988444        2.3795661404       -0.1753040818
 O         -2.9024153895        3.2988901729       -0.1685924611
 C         -2.4444687788        0.9341132581       -0.0126267412
 C         -3.6554421423        0.4779404910        0.2722934594
 C         -1.1694920099        0.1751010421       -0.2545664782
 H         -2.1143439157       -5.0973825191       -0.3558911771
 H         -0.6272393655       -4.3699078779       -1.0272661699
 H         -2.1960412395       -4.1316951413       -1.8248907080
 H         -1.8027258771       -1.0691521454        1.3921251691
 H          0.0639114998       -0.5802733180        2.6313974674
 H          3.2677308226       -1.9365840619        2.3152334205
 H          3.2573672392       -0.1775458857        2.1615626363
 H          2.2073619320       -0.9581530937        3.3406997398
 H          1.1767363781       -1.4967422879       -0.7566177202
 H          2.2427376461       -2.6548784241        0.0059242492
 H          4.1253461488       -1.2603326127       -0.0435786610
 H          3.3996015181       -1.1893520050       -1.6439367823
 H          4.3737867530        0.9630508545       -0.6758916830
 H          3.6938661866        3.2657044585       -0.9737991060
 H          2.8777249744        2.9390748748       -2.5127795309
 H          1.9982388595        3.7131609447       -1.1827502947
 H          0.6086623815        1.8780526766       -2.1810671145
 H          0.9472249370        0.1944636370       -1.7920097576
 H          0.4241748233        1.3040943030        0.7098356863
 H         -3.8719926978       -0.5723635432        0.3792740076
 H         -4.4660632777        1.1744545690        0.4055617812
 H         -1.2216445559       -0.2676949436       -1.2576062906
