44
Energy: 4.271294
 C         -3.3523568773       -3.4947205881        0.9822745174
 C         -2.3476298452       -2.6169344175        0.2784763059
 O         -2.2218259812       -2.5486715833       -0.9153076110
 O         -1.6209257712       -1.9367413186        1.1713044483
 C         -0.5511865530       -1.0801965548        0.7370235516
 C          0.5132840295       -1.9422934118        0.1101404520
 C          1.8357881912       -1.9061362241        0.2398489410
 C          2.6671493243       -2.9572876031       -0.4433140476
 C          2.6162109507       -0.8983304387        1.0368206743
 C          3.6969174902       -0.1614615195        0.2144115475
 C          3.4779512864        1.3384907514        0.0750356680
 O          2.4705781918        1.9631902572        0.8215156550
 C          2.3122869754        1.9567442715       -0.5799335550
 C          2.4511305807        3.3024030553       -1.2567462280
 C          1.1752189387        1.0978133912       -1.1236832587
 C         -0.0562625245        1.2291081822       -0.2324336489
 O         -0.8308300422        2.3557190991       -0.6431739201
 C         -2.1321474027        2.1458336685       -0.3912922490
 O         -2.9780895309        2.9802809381       -0.5440498961
 C         -2.3208271015        0.7413902579        0.0883911280
 C         -3.4621545814        0.3738684537        0.6496555838
 C         -1.0280748535        0.0318399466       -0.2192218868
 H         -3.0325065598       -4.5306081412        0.8879122901
 H         -4.3203387608       -3.3974563318        0.4974722447
 H         -3.4180652671       -3.2326348042        2.0334486764
 H         -0.2078522891       -0.6304843226        1.6748384986
 H          0.0910136526       -2.7174335859       -0.5153819495
 H          3.4727631436       -3.2830221128        0.2110114434
 H          2.0607675151       -3.8176560445       -0.7121135335
 H          3.1176860048       -2.5719093244       -1.3575325263
 H          3.1065516720       -1.4338617588        1.8538129150
 H          1.9559574181       -0.1574705981        1.4847701637
 H          4.6682477382       -0.2993624389        0.6909193627
 H          3.7723670344       -0.5775672025       -0.7914095664
 H          4.4084053314        1.9046671435        0.0381172937
 H          2.7739489259        3.1704452370       -2.2872657673
 H          1.4893998101        3.8103591515       -1.2472622101
 H          3.1767253193        3.9177550192       -0.7309407571
 H          0.9224152305        1.4356988134       -2.1285274908
 H          1.4666780447        0.0505272437       -1.1710135253
 H          0.2777453336        1.4288311436        0.7969214991
 H         -3.6636126666       -0.6081180396        1.0341667575
 H         -4.2477761943        1.1075331360        0.7363608692
 H         -1.1117638618       -0.3921322556       -1.2283800599
