44
Energy: 1.439984
 C         -0.9637970742       -4.0992681700       -1.3582409533
 C         -1.5057104922       -2.9647505683       -0.5288728468
 O         -2.6613051743       -2.8170964927       -0.2312430921
 O         -0.5233818827       -2.1308303715       -0.1759598786
 C         -0.8633000086       -0.9906418881        0.6234036941
 C          0.1683288522       -0.7379924127        1.6858372181
 C          1.4608082023       -1.0506836550        1.7214046263
 C          2.2872873018       -0.6721825374        2.9120945382
 C          2.2191489481       -1.7792880347        0.6419155622
 C          2.2328763655       -1.0386715646       -0.7015662831
 C          2.9469719978        0.2924178369       -0.6349542774
 O          2.5972622371        1.2193001438        0.3631220582
 C          2.3002373588        1.5773822806       -0.9601633596
 C          3.1340612580        2.6966342853       -1.5468420988
 C          0.8228632341        1.6332240382       -1.3574188988
 C         -0.1441403229        1.4191546747       -0.1802282504
 O         -0.9345701476        2.6003451783       -0.0306324564
 C         -2.2458454345        2.3404624266        0.0655187529
 O         -3.0747392269        3.1933591577        0.2218435237
 C         -2.4660595173        0.8767188408       -0.0613182778
 C         -3.6602872286        0.3077769014        0.0209095689
 C         -1.1303139902        0.2337018134       -0.3098369831
 H         -0.0740618001       -4.5095139799       -0.8891309421
 H         -0.6887858043       -3.7220526036       -2.3410187165
 H         -1.7242178997       -4.8661524329       -1.4664610862
 H         -1.8108557442       -1.2306240660        1.1252680234
 H         -0.2542896637       -0.2091643204        2.5307578988
 H          1.6832009029       -0.2159192104        3.6910872666
 H          2.7881476222       -1.5487236800        3.3212540550
 H          3.0488758398        0.0409208198        2.5999115038
 H          1.7654947209       -2.7586206878        0.4804729483
 H          3.2479670588       -1.9305100892        0.9727638197
 H          2.7490459267       -1.6543417947       -1.4414611811
 H          1.2078623511       -0.9025029683       -1.0317085504
 H          4.0233710933        0.2274658048       -0.7933575784
 H          3.0951346318        2.6574135910       -2.6332646065
 H          2.7504061972        3.6580402976       -1.2126422566
 H          4.1683738884        2.6082507128       -1.2241261150
 H          0.6207791887        2.6297132326       -1.7539262009
 H          0.6360354977        0.9169171413       -2.1606019029
 H          0.4506387503        1.3227033189        0.7365890003
 H         -3.8043731121       -0.7550340215       -0.0850148174
 H         -4.5281679021        0.9199496832        0.1994191800
 H         -1.1172213930       -0.1499467766       -1.3373058940
