44
Energy: 3.954207
 C         -2.8153229108       -3.8557576477        1.0581299527
 C         -1.7086019145       -2.8465953960        1.2120797975
 O         -0.9390100176       -2.7976933595        2.1351931931
 O         -1.6983984791       -1.9881512439        0.1878889449
 C         -0.6763985588       -0.9741367561        0.2166681626
 C          0.5941022242       -1.5759697857       -0.3126642099
 C          1.7817282816       -1.6304216451        0.2774947956
 C          2.9483331196       -2.2694407473       -0.4113275938
 C          2.0722426573       -1.0821482515        1.6472178914
 C          1.9803727309        0.4461186272        1.7359474374
 C          2.7874008845        1.1586892825        0.6728318729
 O          2.4469931814        2.4855889238        0.3458609688
 C          2.4178117776        1.5541397539       -0.7020833442
 C          3.5621400702        1.6685503425       -1.6990512705
 C          1.1076795876        1.2902448631       -1.4391169159
 C         -0.1924872141        1.4066262908       -0.6476073082
 O         -0.9940394520        2.4694243165       -1.1741226997
 C         -2.2994191872        2.2215799158       -0.9627705890
 O         -3.1691590884        3.0134581527       -1.1868377222
 C         -2.4521668347        0.8249789038       -0.4492465891
 C         -3.5782416038        0.3697567614        0.0748748108
 C         -1.1196719963        0.1732166917       -0.6944865712
 H         -3.5195819058       -3.7371097476        1.8788037734
 H         -2.3953468728       -4.8564989740        1.1214696128
 H         -3.3226770076       -3.7196840709        0.1085072473
 H         -0.5730410583       -0.6428497951        1.2539343374
 H          0.4620910755       -2.0332730516       -1.2859621527
 H          3.3095023834       -3.1123314056        0.1764464065
 H          2.6832611411       -2.6263689942       -1.4028979217
 H          3.7629783752       -1.5519568769       -0.4992735475
 H          3.0764080414       -1.3909911614        1.9410473882
 H          1.3661288926       -1.5140963672        2.3601872028
 H          0.9440662190        0.7676383193        1.7044803495
 H          2.3786136590        0.7617882209        2.7044629181
 H          3.8610863418        1.0209875950        0.8262144740
 H          3.6837623096        0.7292515560       -2.2339485444
 H          3.3548197814        2.4578323893       -2.4177395038
 H          4.4903776252        1.9115027359       -1.1889203031
 H          1.0454189352        2.0326279269       -2.2395045764
 H          1.1815594660        0.3046929531       -1.9004577482
 H          0.0231711416        1.6864863171        0.3891636699
 H         -3.6879360595       -0.6377213196        0.4339262838
 H         -4.4295121143        1.0262121746        0.1479283378
 H         -1.1327903093       -0.2100640954       -1.7247646272
