44
Energy: 3.509322
 C         -2.2267492327       -3.7718672621       -0.8826626201
 C         -1.4149287687       -2.5193379696       -0.6626929097
 O         -0.7207111805       -2.0117898213       -1.5065740475
 O         -1.5897278431       -2.0823287088        0.5796359588
 C         -0.9265370037       -0.9441034346        1.1682031271
 C          0.3502174592       -1.3677472277        1.8588630108
 C          1.5446733041       -1.6958315274        1.3703526679
 C          2.6119523034       -2.1545251859        2.3254009852
 C          1.9846587218       -1.7284677759       -0.0668516008
 C          3.0134467326       -0.6312703264       -0.4115491702
 C          2.4725156192        0.4853455332       -1.2813794345
 O          3.0699774202        1.7458010495       -1.1035429442
 C          1.6979759922        1.6469206866       -0.8056243988
 C          0.7953873159        2.3805246129       -1.7803193464
 C          1.3357062107        1.7888481461        0.6630397726
 C         -0.1181249913        1.4525124813        1.0119437169
 O         -0.9366289403        2.5967885991        0.7836616184
 C         -2.0593599093        2.2989563705        0.1151499972
 O         -2.9067791540        3.1069292382       -0.1411471184
 C         -2.0561512440        0.8514596963       -0.2393959845
 C         -3.0754349272        0.3016237600       -0.8835259189
 C         -0.7561969414        0.2710879933        0.2409075356
 H         -2.5136651288       -3.8425508666       -1.9277445918
 H         -3.0995914089       -3.7772390540       -0.2376944736
 H         -1.6042067231       -4.6298350686       -0.6358630079
 H         -1.6433376562       -0.6622845160        1.9516637452
 H          0.2269930146       -1.4476095745        2.9316044648
 H          3.5661783445       -1.6834171635        2.1013401135
 H          2.3479182006       -1.9404924548        3.3573154755
 H          2.7495041252       -3.2310454290        2.2234579594
 H          1.1456394534       -1.6644134662       -0.7534178384
 H          2.4545706175       -2.7019319446       -0.2286520360
 H          3.4307454859       -0.1892008315        0.4937377689
 H          3.8479237687       -1.0745351828       -0.9587525068
 H          2.3263935266        0.2024169251       -2.3234624933
 H         -0.1208409412        1.8285713817       -1.9782673085
 H          0.5342637610        3.3578756755       -1.3812565340
 H          1.3241829567        2.5217650276       -2.7201936119
 H          1.9905709504        1.1594789284        1.2635951135
 H          1.5051462046        2.8271551445        0.9593659518
 H         -0.1617645970        1.2589469496        2.0934265726
 H         -3.1086135009       -0.7308253757       -1.1806106711
 H         -3.9206189773        0.9191778336       -1.1407754030
 H         -0.1364521229       -0.0108588797       -0.6094878708
