44
Energy: 4.959038
 C         -2.5427494382       -3.9910294013        0.1585441476
 C         -1.6125757910       -2.8197190357       -0.0395587840
 O         -0.8145762988       -2.7325328223       -0.9361898300
 O         -1.8140628870       -1.9113608524        0.9119493559
 C         -0.9970046886       -0.7240429200        1.0233318138
 C          0.3523032850       -1.0735707518        1.6082480086
 C          1.5362902099       -1.3664374970        1.0742585370
 C          2.6822504115       -1.6869409512        1.9907729873
 C          1.8716054143       -1.4730021345       -0.3837092520
 C          3.1436698603       -0.7285433646       -0.8151409144
 C          3.2896145012        0.7227815931       -0.3919526331
 O          2.5615496136        1.2323923414        0.6931389970
 C          2.3093203258        1.8082673402       -0.5675574629
 C          2.8138282394        3.2269406449       -0.7380014313
 C          0.9322483719        1.5677069049       -1.1802160320
 C         -0.1487519697        1.3873520437       -0.0997620825
 O         -1.0161468668        2.5208755537       -0.1112474672
 C         -2.2969876655        2.1914866837       -0.3275155536
 O         -3.1820523001        2.9984913475       -0.3916375721
 C         -2.4074026262        0.7142727160       -0.4729635894
 C         -3.5483176686        0.1055675196       -0.7614767495
 C         -1.0395940004        0.1356812670       -0.2571155783
 H         -3.4226929476       -3.6859258738        0.7158885413
 H         -2.0139146681       -4.7543139364        0.7262458223
 H         -2.8171161475       -4.4083635529       -0.8059524009
 H         -1.5372783016       -0.1618849926        1.7976915149
 H          0.2930526178       -1.1212393747        2.6892899443
 H          2.3395729852       -1.8721122703        3.0049721394
 H          3.2240959390       -2.5616555524        1.6359245198
 H          3.3692301505       -0.8430477791        2.0152300236
 H          1.0306452071       -1.1794974342       -0.9960797944
 H          2.0409786535       -2.5345705819       -0.5936354282
 H          4.0122329020       -1.2584406721       -0.4180987388
 H          3.2151015730       -0.7663455406       -1.9060035681
 H          4.3358474150        1.0371011081       -0.3931760585
 H          2.0735944116        3.9257793140       -0.3548174882
 H          3.7408468635        3.3689744553       -0.1881268083
 H          2.9886099069        3.4367662469       -1.7911064912
 H          0.6656897175        2.4426319971       -1.7748511898
 H          0.9619164440        0.7119481985       -1.8525335157
 H          0.3449000478        1.3775999589        0.8796315493
 H         -3.6244027016       -0.9606104655       -0.8872009622
 H         -4.4464966099        0.6889383834       -0.8772056751
 H         -0.7590367922       -0.4699302999       -1.1185867583
