44
Energy: 2.606982
 C         -3.6126311583       -2.0711351791        1.9258035292
 C         -2.2267482924       -1.4908930455        1.8894878215
 O         -1.7254508957       -0.8330698201        2.7644304659
 O         -1.6163631087       -1.7907988568        0.7405195261
 C         -0.2854991528       -1.2971495448        0.5244414409
 C          0.4808369147       -2.4105045431       -0.1345726303
 C          1.6686077883       -2.4228247482       -0.7319237875
 C          2.2066943323       -3.7212634496       -1.2625278455
 C          2.5753147392       -1.2475945491       -1.0118244606
 C          2.8710301699       -0.3123513994        0.1772148105
 C          2.8564059541        1.1385173499       -0.2646586197
 O          3.1729167609        2.1447946488        0.6589204345
 C          1.8663445663        2.1615396358        0.1274307546
 C          1.5611112826        3.2853767322       -0.8405907045
 C          0.7755820496        1.8916045977        1.1526984660
 C         -0.5200157909        1.2661002852        0.6335457534
 O         -1.2754246109        2.1960656587       -0.1445976802
 C         -1.9007832965        1.5878455890       -1.1677358991
 O         -2.6685525324        2.1508328163       -1.8964121010
 C         -1.4628343757        0.1645764180       -1.2387898587
 C         -2.0018807629       -0.7368447881       -2.0444193211
 C         -0.3347182991        0.0244732718       -0.2611797840
 H         -3.6554047585       -2.9837816375        1.3398962708
 H         -4.2983688304       -1.3455756846        1.4911120265
 H         -3.9066624635       -2.2540175525        2.9549464251
 H          0.1396985370       -1.0917543729        1.5204992798
 H         -0.0441607052       -3.3524663704       -0.0434077121
 H          3.1425556013       -3.9667729873       -0.7619534853
 H          1.5079436183       -4.5385445346       -1.1102574767
 H          2.4138198526       -3.6330512439       -2.3283855090
 H          2.1384164624       -0.6727260155       -1.8355325470
 H          3.5216839389       -1.6359714305       -1.3910054725
 H          2.1631986017       -0.4740288919        0.9861599440
 H          3.8640270627       -0.5313763831        0.5752721887
 H          3.3381326622        1.2848769487       -1.2338571564
 H          1.2977139588        4.1862399094       -0.2915568059
 H          2.4308273546        3.4992029584       -1.4571811905
 H          0.7246648221        3.0184886855       -1.4817319090
 H          1.1765015123        1.2476823287        1.9367100091
 H          0.5168798135        2.8448525205        1.6185950963
 H         -1.1328432316        1.0153517662        1.5103815194
 H         -1.6597849894       -1.7569192620       -2.0696532448
 H         -2.8140402716       -0.4575946567       -2.6940707979
 H          0.5974333201        0.1373194061       -0.8127363473
