21
Energy: 3.268
O   -1.65848190  -0.88972924  -2.37064821
H   -2.06254912  -1.51454439  -2.98088193
C   -1.00192252  -1.60892726  -1.34567822
C   -0.43021665  -0.64696819  -0.33477836
C   -0.74750278  -0.72765280   0.95067081
C   -0.16678185   0.11634064   2.04727066
H   -0.34546519  -0.37721580   3.00421641
C    1.33662717   0.33229385   1.85388141
H    1.78293983  -0.60026563   1.50197625
C    1.61073070   1.46081177   0.85125398
O    0.66136645   1.55522032  -0.17974543
C    0.48779606   0.38719051  -0.94140216
H    1.46380484  -0.07170617  -1.17682801
H    0.03027579   0.71587303  -1.87995102
H    2.62187124   1.33917777   0.42780986
H    1.55976091   2.43073159   1.35330699
H    1.80847725   0.59119020   2.80329596
H   -0.66794212   1.08778248   2.07125439
H   -1.46072162  -1.47856868   1.26517996
H   -0.17848015  -2.20418085  -1.77621911
H   -1.69800698  -2.29645100  -0.84665855
