21
Energy: 0.157
O    2.94611771  -0.93629753   0.45354707
H    2.47878990  -1.77707170   0.51507910
C    2.09092106   0.08089569   0.90442047
C    0.80496706   0.22461606   0.12694667
C    0.55195709  -0.47578928  -0.97141511
C   -0.72589625  -0.39431004  -1.75214095
H   -0.68340909  -1.09844549  -2.58439152
C   -1.95627869  -0.70891598  -0.89464047
H   -1.77518882  -1.61681061  -0.31661681
C   -2.32737872   0.42439498   0.06547206
O   -1.40560541   0.64494758   1.10478357
C   -0.18090925   1.21696010   0.70016483
H    0.23607839   1.67387145   1.60209920
H   -0.36888299   2.01317207  -0.03851710
H   -3.26587008   0.18183603   0.57216970
H   -2.46974069   1.35441283  -0.50905677
H   -2.81474648  -0.88342272  -1.54667362
H   -0.83664488   0.61076807  -2.17319312
H    1.30147906  -1.15991262  -1.34531770
H    2.66832746   1.00838890   0.82242414
H    1.84224570  -0.06553203   1.96795089
