21
Energy: 2.37
O   -2.63484835  -1.16288543   0.02168281
H   -2.59151217  -0.77393086   0.90245905
C   -1.41185354  -1.82257209  -0.23758959
C   -0.23250449  -0.88077095  -0.19244868
C    0.67659737  -0.94675227   0.77212402
C    1.85931580  -0.03189045   0.88525222
H    2.41426359  -0.04694244  -0.05544999
C    1.44143720   1.41549359   1.16643389
H    2.33735574   2.03780066   1.16055213
C    0.44622396   1.92361862   0.10298107
O    0.59379897   1.26425028  -1.13399230
C   -0.25033402   0.14889823  -1.29429146
H    0.06012101  -0.31636585  -2.23684172
H   -1.29513513   0.48544459  -1.41277764
H    0.62220901   2.98616991  -0.09120240
H   -0.58478357   1.81107394   0.46237372
H    0.98243734   1.49225625   2.15368554
H    2.52232771  -0.37470575   1.68024567
H    0.57905138  -1.71045400   1.53331707
H   -1.52145660  -2.24092606  -1.24193451
H   -1.26159598  -2.64690785   0.47280887
