21
Energy: 0.317
O    1.09851539   0.96729309  -2.80251090
H    2.00754689   0.83577282  -2.51046882
C    0.29977306  -0.04779111  -2.25289643
C    0.31474704  -0.12170353  -0.74528991
C    0.85132954   0.83288400   0.00460765
C    0.87741199   0.82021528   1.50373562
H    1.35375214   1.73375353   1.86246797
C   -0.52648563   0.71729548   2.10852687
H   -1.18677780   1.43234465   1.61550815
C   -1.13062951  -0.68351685   1.98412859
O   -1.44914171  -1.07607690   0.67153880
C   -0.34181162  -1.34959339  -0.15607782
H   -0.73578361  -1.97779455  -0.96017986
H    0.40779952  -1.93199520   0.40643960
H   -2.08116792  -0.72133124   2.52385064
H   -0.44250950  -1.41769841   2.43540098
H   -0.48098468   0.96545841   3.17101888
H    1.47587520  -0.02752229   1.85557777
H    1.27290915   1.70417717  -0.47800731
H    0.59172596  -1.03031747  -2.65997855
H   -0.71993245   0.16245982  -2.59197393
