21
Energy: 1.013
O    0.77124380  -3.02968599   0.47480897
H    0.55803312  -2.78650760   1.38245487
C    1.25877979  -1.89047150  -0.20344368
C    0.28353831  -0.73998366  -0.19646430
C   -0.31602896  -0.32563382  -1.30570981
C   -1.28295166   0.81867871  -1.37702162
H   -2.17978077   0.57681376  -0.79641070
C   -0.68609238   2.12462595  -0.84292049
H   -1.32105552   2.96044395  -1.14379593
C   -0.57433007   2.15236949   0.68310870
O    0.37613869   1.26646447   1.22062944
C    0.02815802  -0.09888990   1.15094430
H   -1.03245502  -0.22581661   1.42758035
H    0.64647592  -0.57864627   1.91690663
H   -1.56413771   1.94923658   1.12434397
H   -0.24551995   3.14336902   1.00869281
H    0.30569064   2.27364422  -1.27284215
H   -1.58946972   0.96539049  -2.41345403
H   -0.09004684  -0.82199376  -2.23925271
H    1.44788037  -2.22357591  -1.22566195
H    2.21079996  -1.56166300   0.24224511
