21
Energy: 3.499
O    0.09362536   2.60361949  -1.22608515
H   -0.14379210   2.81090039  -0.31513489
C   -0.65132412   1.48098331  -1.65096974
C   -0.44233407   0.27068726  -0.77111803
C    0.39249420  -0.70200878  -1.11497441
C    0.66369089  -1.91680330  -0.27984835
H    1.26510204  -2.63219600  -0.84106333
C    1.38644938  -1.55835989   1.02348251
H    2.39793231  -1.20799890   0.81288573
C    0.62367274  -0.46007779   1.78752392
O   -0.76884062  -0.52396744   1.56295634
C   -1.22727014   0.30177699   0.51961198
H   -1.26710040   1.34735944   0.88004984
H   -2.25949505  -0.01772886   0.32972231
H    1.00372882   0.52911365   1.50380510
H    0.76835248  -0.58476773   2.86504632
H    1.45639471  -2.45657039   1.63843399
H   -0.28519642  -2.39282178  -0.02158459
H    0.92707660  -0.62175695  -2.05130145
H   -0.30375582   1.27516172  -2.66486143
H   -1.72345645   1.72971888  -1.68841522
