21
Energy: 4.314
O   -1.63016761  -1.61213967   2.02435651
H   -2.44824349  -2.00760519   2.34187283
C   -1.82127286  -1.16471053   0.69681398
C   -0.53255172  -0.57251173   0.18807197
C    0.01257691  -0.96683188  -0.95520357
C    1.28926590  -0.41742213  -1.51826120
H    1.58032755  -0.98386515  -2.40348776
C    1.16708954   1.06454186  -1.88637640
H    0.46013828   1.19349806  -2.70767365
C    0.69676420   1.89736980  -0.67643953
O    1.04593416   1.30606116   0.55457276
C    0.04354021   0.48200443   1.09930879
H   -0.79082016   1.10712024   1.46273143
H    0.49527262  -0.00372566   1.96999545
H   -0.38960731   2.04775060  -0.72135029
H    1.17706269   2.88088503  -0.69353391
H    2.14391060   1.41716325  -2.22069521
H    2.08006996  -0.51600371  -0.77130667
H   -0.48719754  -1.72770246  -1.54007951
H   -2.61194942  -0.39572944   0.66974894
H   -2.12866829  -1.99556512   0.04713657
