21
Energy: 3.35
O    1.73939387   2.09241702  -0.96737841
H    2.50475412   2.66138828  -1.09518204
C    2.09634589   1.02476496  -0.11563281
C    0.90027426   0.13919182   0.12547180
C    0.53063242  -0.18785649   1.35745094
C   -0.58959585  -1.11928648   1.71392018
H   -0.71054737  -1.13036149   2.79837100
C   -1.92344521  -0.73846757   1.06845187
H   -2.11672449   0.32310351   1.22883350
C   -1.95740423  -1.02066664  -0.43453303
O   -1.16665107  -0.15330559  -1.20504978
C    0.22143347  -0.36547000  -1.12877924
H    0.62906277   0.17646782  -1.98478570
H    0.44187130  -1.44227056  -1.24575094
H   -2.97523622  -0.87827692  -0.80982809
H   -1.65943733  -2.06672646  -0.61844966
H   -2.72552067  -1.31157418   1.53861298
H   -0.32544811  -2.13582783   1.40069975
H    1.07929380   0.22749944   2.19286700
H    2.47676347   1.40168952   0.84382165
H    2.89055051   0.41837559  -0.58525374
