21
Energy: 2.556
O   -0.04527019   0.51965682  -3.08353284
H    0.53072165  -0.24658867  -3.18256372
C   -0.97724299   0.24990519  -2.05722503
C   -0.30957281  -0.06237886  -0.73980028
C   -0.44702090  -1.24527942  -0.15449004
C    0.20709709  -1.64802557   1.13376139
H    1.29069557  -1.54691569   1.03599890
C   -0.24768504  -0.78076976   2.31089581
H    0.25257529  -1.13779915   3.21240541
C    0.09262980   0.70869979   2.08005937
O    1.06606498   0.90769389   1.08087782
C    0.53581412   1.06946954  -0.21056333
H    1.40049941   1.21712686  -0.86690834
H   -0.07083679   1.99169948  -0.25134475
H    0.51161443   1.13905383   2.99456374
H   -0.81637545   1.26954027   1.82522022
H   -1.32356844  -0.88900823   2.45706153
H   -0.02112521  -2.69183415   1.35265490
H   -1.08489159  -1.98536698  -0.62108486
H   -1.63820789  -0.57946104  -2.34637139
H   -1.57870487   1.16030434  -1.97471223
