21
Energy: 2.985
O    3.01413153  -0.19153874  -0.69961514
H    2.85634238   0.74985817  -0.83409710
C    2.16911010  -0.64670866   0.32339048
C    0.69152699  -0.45437436   0.06143235
C    0.23274973  -0.04432408  -1.11384732
C   -1.21590048   0.15369614  -1.44511847
H   -1.76022352  -0.77184732  -1.24366738
C   -1.85266906   1.27022037  -0.61160639
H   -2.91521579   1.31665890  -0.85424950
C   -1.67283142   1.00704675   0.89726551
O   -1.51409672  -0.36338864   1.19197993
C   -0.17469503  -0.78614543   1.25301929
H   -0.22093781  -1.87352994   1.38208668
H    0.30219674  -0.36275370   2.15609849
H   -2.56345377   1.33602130   1.44137231
H   -0.81252575   1.57008657   1.28147282
H   -1.40559626   2.23329502  -0.86429250
H   -1.32528933   0.39120194  -2.50380484
H    0.94086436   0.15142618  -1.90798621
H    2.43257429  -0.16635087   1.28047535
H    2.38068279  -1.71655749   0.42353626
