21
Energy: 0.317
O   -0.39744858  -1.57735494  -2.66533511
H   -1.35512296  -1.52617487  -2.57386643
C    0.16743638  -1.79772989  -1.38919123
C   -0.15906077  -0.69662734  -0.41277545
C   -0.73644443  -0.94245385   0.75679946
C   -1.06073988   0.10611601   1.77918998
H   -1.48475302  -0.37260499   2.66302729
C    0.16935051   0.92053510   2.19249396
H    0.99775433   0.24358303   2.40723026
C    0.61309392   1.92380137   1.12416312
O    1.14831277   1.34819020  -0.04061480
C    0.21066871   0.69705781  -0.86851847
H    0.67984049   0.63703381  -1.85380757
H   -0.70117210   1.31265645  -0.95227304
H    1.41785478   2.54828039   1.52270391
H   -0.23767483   2.57487217   0.86229433
H   -0.06048532   1.48258645   3.10009172
H   -1.81634973   0.78966089   1.37655069
H   -0.97131195  -1.96421313   1.02553414
H    1.24811051  -1.82996002  -1.55808471
H   -0.15371479  -2.76883259  -0.98652485
