21
Energy: 0.0
O   -1.76472673   1.14242720  -2.01786073
H   -2.27242128   0.55328348  -1.44817334
C   -0.80320219   1.80709158  -1.23230461
C   -0.00511180   0.87561541  -0.35366386
C    0.23743484   1.15277629   0.92150801
C    1.02942793   0.27660075   1.84623588
H    1.05873226   0.73340920   2.83643921
C    0.44552189  -1.13497047   1.96437162
H   -0.62954442  -1.07088365   2.14106451
C    0.69482955  -1.99237109   0.72083872
O   -0.00291825  -1.57945686  -0.42712751
C    0.47403938  -0.39200512  -1.02349678
H    0.09878288  -0.41671284  -2.05023886
H    1.57621528  -0.40127175  -1.04755268
H    0.34962213  -3.01371291   0.90620803
H    1.77645644  -2.02136515   0.51029734
H    0.90321721  -1.64330417   2.81549906
H    2.06038207   0.20119425   1.48375589
H   -0.15235208   2.06929501   1.34457529
H   -1.27653210   2.58564910  -0.61590693
H   -0.13589374   2.29826058  -1.94968548
