21
Energy: 3.619
O   -1.23083227  -1.86313015   1.66191894
H   -0.58674445  -2.27980631   1.07614905
C   -0.71912534  -0.61268629   2.06926850
C   -0.12726652   0.15065684   0.91193403
C   -0.73694951   1.20438126   0.38417694
C   -0.32367341   1.99956727  -0.81984233
H    0.13314182   2.93737868  -0.48622935
C    0.61450929   1.28495114  -1.80339462
H    1.65970511   1.43573568  -1.53236753
C    0.33624667  -0.21670447  -1.88557668
O    1.04014255  -0.99208485  -0.93328071
C    1.15671137  -0.42018065   0.35555701
H    1.92779349   0.36589006   0.35811125
H    1.52151156  -1.23697407   0.98576493
H    0.66136248  -0.61699262  -2.84976916
H   -0.74494654  -0.39388220  -1.78466240
H    0.47413523   1.71899477  -2.79469981
H   -1.24113677   2.27015073  -1.35026123
H   -1.65233394   1.55179658   0.84678119
H    0.04789683  -0.75439837   2.84887731
H   -1.56214183  -0.07218998   2.50492420
