21
Energy: 3.452
O    3.03601133  -0.84165534   0.14761637
H    2.91618935  -1.00172971  -0.79444080
C    2.18399607   0.20792487   0.54961348
C    0.71900687  -0.07970669   0.31827936
C   -0.15011092  -0.11318369   1.32053637
C   -1.61729046  -0.37665791   1.16129670
H   -2.08647105  -0.48643396   2.13918357
C   -2.31554481   0.74721785   0.38760523
H   -2.31555146   1.66853238   0.97210299
C   -1.61138390   1.00382686  -0.95825399
O   -1.00465584  -0.16227851  -1.47140073
C    0.35347684  -0.30863709  -1.13107026
H    0.95702838   0.38346828  -1.74878415
H    0.60499868  -1.33528137  -1.42529162
H   -0.86107406   1.79665934  -0.84772400
H   -2.34142794   1.32660864  -1.70684710
H   -3.35144414   0.45378874   0.21274263
H   -1.75698650  -1.30726826   0.60654029
H    0.20440978   0.07694440   2.32428384
H    2.46094749   1.13906934   0.02699743
H    2.37516923   0.34253253   1.61592234
