21
Energy: 3.65
O    0.37815812  -0.66476252  -2.79529312
H    0.47845366  -1.47955843  -2.29010722
C   -0.62656993   0.11802923  -2.19558507
C   -0.43634913   0.30112814  -0.70710749
C   -1.46287366   0.19644833   0.12716555
C   -1.47326658   0.34894078   1.61891302
H   -2.06910402  -0.47561688   2.02413523
C   -0.10028842   0.33642257   2.29628159
H   -0.23830234   0.12508258   3.35817273
C    0.81517493  -0.73075760   1.69710682
O    1.58459450  -0.30122608   0.59170680
C    0.97858223   0.62408495  -0.28904740
H    1.62551497   0.61810767  -1.17037072
H    1.00185405   1.63784404   0.14171715
H    0.20967224  -1.60557429   1.41110857
H    1.55754997  -1.05812759   2.43118122
H    0.38375890   1.30971554   2.21996070
H   -2.00469710   1.27260362   1.87232706
H   -2.43907445  -0.02657576  -0.28904830
H   -1.62084540  -0.30798212  -2.39582827
H   -0.56611446   1.09192103  -2.69442662
