21
Energy: 3.79
O   -2.81107734  -0.25474609   0.12536036
H   -3.70665767  -0.60631156   0.10601622
C   -1.89300412  -1.33007671   0.04559269
C   -0.49074022  -0.77819667   0.04293636
C    0.32276144  -0.94469463  -0.99150872
C    1.73089192  -0.43250834  -1.05071333
H    2.23062166  -0.81578536  -1.94099656
C    1.78335515   1.09896019  -1.06154618
H    1.35596393   1.48539507  -1.98803067
C    1.00752767   1.68445242   0.13465379
O    0.99142223   0.80979483   1.24188471
C   -0.14939467  -0.01243752   1.29708189
H   -1.03310195   0.59447883   1.55507035
H    0.03561234  -0.71223653   2.12078781
H   -0.02094500   1.92179382  -0.16216971
H    1.48869366   2.60709073   0.47442832
H    2.82877936   1.40788707  -1.01326365
H    2.27705714  -0.78363623  -0.17222297
H   -0.03419184  -1.48427044  -1.85875848
H   -2.06263381  -1.91455488  -0.86855625
H   -2.01858946  -1.99608183   0.91443818
