21
Energy: 2.461
O   -0.71267983  -2.95207140  -0.77082880
H   -0.62365955  -3.20034248   0.15629894
C    0.25773467  -1.98340521  -1.06939633
C    0.19977713  -0.74772949  -0.19933323
C   -0.85977165  -0.46494054   0.54744173
C   -0.97473085   0.73659369   1.43596662
H   -0.11503897   0.77095586   2.10946332
C   -0.99904750   2.03986239   0.63029154
H   -0.99070901   2.87752220   1.32915078
C    0.21994540   2.12960053  -0.30840032
O    1.33498593   1.42215184   0.19071509
C    1.44253964   0.10431417  -0.28848800
H    2.25034067  -0.34921209   0.29812176
H    1.76506184   0.12066363  -1.34554624
H    0.53701539   3.17216906  -0.40898755
H   -0.04130789   1.75373187  -1.30524907
H   -1.91215865   2.10039786   0.03627091
H   -1.88066022   0.67022631   2.03934974
H   -1.71442328  -1.12695397   0.50571308
H    0.08068354  -1.70784493  -2.11476919
H    1.26968205  -2.41607597  -1.00587938
