21
Energy: 0.288
O   -1.71794439  -1.45184051  -1.70027509
H   -1.84103666  -0.49491297  -1.72351459
C   -0.34264567  -1.71851243  -1.52661744
C    0.28482672  -0.77814707  -0.53239903
C    0.59906401  -1.15136986   0.70174319
C    1.13129011  -0.21885325   1.74878808
H    2.09234210   0.19375240   1.42350813
C    0.16376464   0.93735316   2.02934805
H    0.44884858   1.42851080   2.96193064
C    0.16090154   2.00319026   0.93017085
O   -0.35994134   1.58028837  -0.30643599
C    0.44633127   0.65170506  -1.00100216
H    1.50588741   0.94528235  -0.92077156
H    0.14884814   0.73994131  -2.05105883
H    1.18663170   2.38179330   0.78902119
H   -0.47924991   2.83725952   1.23082907
H   -0.84709491   0.54264899   2.14384222
H    1.30270608  -0.77221608   2.67273578
H    0.44314214  -2.17880594   0.99891205
H    0.18098126  -1.63666414  -2.49396407
H   -0.27688744  -2.75279547  -1.18193871
