21
Energy: 0.716
O    0.59455350   0.88135402  -2.87053890
H    0.05040775   1.63478045  -2.61475958
C    0.02771075  -0.28645580  -2.31741950
C   -0.15076634  -0.19515246  -0.82070140
C   -1.35045997  -0.28454290  -0.26041609
C   -1.64332028  -0.24337664   1.21061443
H   -2.60450571  -0.72934283   1.38893821
C   -0.55815311  -0.94052854   2.03419855
H   -0.26078557  -1.85643221   1.51924597
C    0.65922088  -0.03306938   2.24412029
O    0.97287950   0.77254160   1.13534445
C    1.13551346   0.07508221  -0.07608297
H    1.68224306  -0.86812141   0.08631426
H    1.75943065   0.71840286  -0.70667677
H    1.53033137  -0.64842196   2.52395528
H    0.46450972   0.67983085   3.04986697
H   -0.94960289  -1.22042013   3.01366112
H   -1.73078624   0.79672789   1.53872297
H   -2.21237089  -0.42316571  -0.90143221
H    0.73218730  -1.08805098  -2.56113204
H   -0.93575830  -0.51183652  -2.79652163
