21
Energy: 1.442
O    1.13560542   0.59151757  -2.74172629
H    1.62274665  -0.22740255  -2.59873369
C   -0.19474173   0.40574666  -2.30178687
C   -0.27641814   0.06523307  -0.83347213
C   -0.85491575  -1.05420063  -0.41612701
C   -0.95615975  -1.52105022   1.00625774
H   -1.14283436  -2.59669138   1.00920292
C    0.31631779  -1.22130675   1.80256937
H    1.18407929  -1.43043833   1.17315153
C    0.34869457   0.23508127   2.27995047
O   -0.20098069   1.15070012   1.36595418
C    0.34910942   1.10233117   0.07159097
H    1.44046965   0.95833404   0.11787304
H    0.16772806   2.09057438  -0.36332600
H    1.38627832   0.51797816   2.52347811
H   -0.26286112   0.35074896   3.17868446
H    0.37599620  -1.87106981   2.67730443
H   -1.80652779  -1.03381966   1.49200004
H   -1.30541090  -1.70853394  -1.15216589
H   -0.69090066  -0.37326866  -2.89736670
H   -0.69306329   1.36031630  -2.49511715
