21
Energy: 3.556
O    0.18917466   0.59087680  -3.01511006
H   -0.11873720   1.44778503  -2.69896616
C   -0.32504430  -0.40718691  -2.17295316
C    0.09947281  -0.30818925  -0.72530225
C    1.00762477   0.57080174  -0.32246876
C    1.49830418   0.82746231   1.07135040
H    1.56951022   1.91337887   1.19127319
C    0.62256082   0.27022172   2.19972416
H    0.83417237   0.82981049   3.11263648
C   -0.86858691   0.39304463   1.88398127
O   -1.41359603  -0.70729911   1.18194598
C   -0.58485051  -1.28957774   0.19591672
H   -1.25470093  -1.93841058  -0.37454827
H    0.17815284  -1.92864917   0.66691969
H   -1.04505801   1.32106738   1.31826223
H   -1.45516678   0.43964888   2.80591368
H    0.85781123  -0.77488124   2.40069680
H    2.51666895   0.43571028   1.16447202
H    1.47388620   1.20210022  -1.06983810
H    0.03274826  -1.35514772  -2.58938854
H   -1.42608451  -0.41853926  -2.21365893
