21
Energy: 3.668
O    2.46734452  -0.30054834  -1.81533889
H    2.01502707   0.17002620  -2.52393297
C    2.13522566   0.30660698  -0.58433603
C    0.65206960   0.28266047  -0.30515055
C   -0.01919003   1.40225719  -0.06619597
C   -1.47233072   1.56271457   0.26937310
H   -1.98205990   2.02965710  -0.58051391
C   -2.20606292   0.28086744   0.67610718
H   -2.52655733  -0.28328137  -0.19966759
C   -1.33736448  -0.61727994   1.55838351
O   -0.54545199  -1.54712660   0.84837556
C    0.02505594  -1.09046158  -0.36116057
H   -0.72668843  -1.11003246  -1.16724720
H    0.79235926  -1.82932892  -0.60510907
H   -1.96071476  -1.23716724   2.20919197
H   -0.69534778   0.01147425   2.19484132
H   -3.10505704   0.55653250   1.23015717
H   -1.53148234   2.27515835   1.09847486
H    0.52609444   2.33971941  -0.07726787
H    2.51241293   1.33870863  -0.54851813
H    2.66027070  -0.28298873   0.17360839
