21
Energy: 1.363
O   -1.27292288   2.88694966  -0.32061774
H   -2.03897262   2.44598533   0.06405486
C   -0.56574749   1.95822703  -1.10015433
C   -0.13557179   0.70963635  -0.36302723
C   -0.13938312   0.64895670   0.96222789
C    0.22153568  -0.54405172   1.79611114
H   -0.23645331  -0.43400444   2.78126048
C   -0.24583329  -1.85557697   1.16079445
H   -1.24795603  -1.71183646   0.75047287
C    0.71299004  -2.32129531   0.05959077
O    1.25897603  -1.27741244  -0.70929320
C    0.31690446  -0.40377409  -1.27997573
H   -0.55461911  -0.96569907  -1.65606233
H    0.82096790   0.04431560  -2.14384090
H    0.19614436  -3.04266740  -0.59524688
H    1.58341240  -2.81411057   0.50040176
H   -0.30570374  -2.64093646   1.91625107
H    1.30589057  -0.57835465   1.93574425
H   -0.42521388   1.53566894   1.51336502
H    0.31895055   2.49310697  -1.46062550
H   -1.16007959   1.66296773  -1.98104671
