21
Energy: 1.993
O    2.44241582   0.27355142  -1.81729824
H    2.43085298  -0.68603751  -1.73635538
C    1.11478960   0.74121982  -1.92513116
C    0.26527729   0.42148466  -0.71735626
C   -0.33813782   1.38044145  -0.02666183
C   -1.19067220   1.19616901   1.19397741
H   -2.21392852   0.95371835   0.89184316
C   -0.66027302   0.09061987   2.10955730
H   -1.04947709   0.21830731   3.12102731
C   -1.07105409  -1.29726960   1.60853928
O   -1.05759340  -1.42932086   0.20763829
C    0.14954449  -1.05719797  -0.41199331
H    0.16443114  -1.61169815  -1.35896895
H    1.00801887  -1.39250429   0.19417049
H   -2.10615031  -1.50988573   1.88823192
H   -0.42033701  -2.06088805   2.06615971
H    0.42783196   0.16762101   2.15847052
H   -1.22129602   2.13905899   1.74304642
H   -0.21739361   2.40380205  -0.35665862
H    0.63806068   0.32031024  -2.82518984
H    1.19915080   1.82194107  -2.05298976
