21
Energy: 3.199
O    0.64473906  -1.31299310   2.74859579
H    0.56560791  -1.37036195   3.70617332
C   -0.09443917  -0.20152627   2.30080824
C    0.01466348  -0.04520467   0.80422545
C    0.89805077  -0.73531633   0.09685378
C    1.07121206  -0.68412299  -1.39168357
H    1.56471475  -1.60167547  -1.71746514
C   -0.26456349  -0.53760028  -2.12385909
H   -1.00155963  -1.18168311  -1.63985809
C   -0.75119090   0.91509372  -2.12332150
O   -0.48589411   1.61350052  -0.93083438
C   -0.94155321   0.98252142   0.24035542
H   -1.93278039   0.52873079   0.07463846
H   -1.06364718   1.78745323   0.97455437
H   -1.83187298   0.93978886  -2.34226714
H   -0.22807518   1.48935863  -2.89259463
H   -0.16609839  -0.86380801  -3.16088531
H    1.72086957   0.15537893  -1.65638531
H    1.54793645  -1.41299955   0.63032017
H    0.27051681   0.72231120   2.77937411
H   -1.15890968  -0.31433596   2.56607837
