21
Energy: 1.381
O   -1.95826618   2.34302215  -0.91018833
H   -2.52454857   2.07972539  -0.17597328
C   -1.36160499   1.19195324  -1.44636521
C   -0.49558030   0.41211955  -0.48106575
C   -0.20908182   0.87457311   0.72903141
C    0.66720460   0.20975073   1.74903009
H    0.08919867  -0.53709412   2.30154271
C    1.88111959  -0.46823082   1.10934779
H    2.66970012  -0.60990444   1.85030759
C    1.51397119  -1.83758931   0.52821717
O    0.23185204  -1.89049272  -0.04906747
C   -0.01916178  -0.91402543  -1.02994756
H   -0.80600858  -1.33728066  -1.66471558
H    0.87097780  -0.76119189  -1.66180770
H    1.48218744  -2.58904861   1.32154358
H    2.27401194  -2.13987258  -0.21097502
H    2.27309898   0.18171561   0.32433901
H    1.00565193   0.96321857   2.46264165
H   -0.61315150   1.83539855   1.02039431
H   -0.74444844   1.54403723  -2.28039008
H   -2.12961503   0.52004744  -1.86236002
