21
Energy: 3.642
O    1.19114611   2.40271983   1.58531806
H    1.95390281   1.88204812   1.86092209
C    0.05986660   1.57186669   1.57804471
C    0.14491014   0.38164045   0.64887475
C    1.12233411   0.26804907  -0.24110999
C    1.33970482  -0.81632237  -1.25406416
H    2.18827613  -1.43337734  -0.93844797
C    0.12679903  -1.70824262  -1.54053575
H    0.04707689  -2.51184175  -0.80825141
C   -1.17712067  -0.90929176  -1.54811334
O   -1.80844100  -0.80958768  -0.28653413
C   -0.95895853  -0.63328212   0.82788189
H   -0.51254909  -1.59730061   1.12240397
H   -1.63094914  -0.31996607   1.63150599
H   -1.92420310  -1.39439081  -2.18260320
H   -0.98494854   0.09708674  -1.94962716
H    0.26025361  -2.17433722  -2.51834049
H    1.63858040  -0.32691734  -2.18614569
H    1.86060788   1.06008623  -0.28821550
H   -0.77286597   2.21024668   1.26427561
H   -0.16000169   1.21283379   2.59676693
