21
Energy: 1.991
O    1.84513552  -0.93964493   2.28813469
H    2.56570602  -0.76699490   2.90244502
C    1.88419823   0.02740999   1.26524210
C    0.75716925  -0.17198770   0.28715856
C   -0.18441784  -1.08705974   0.47202144
C   -1.34531693  -1.30159577  -0.45198529
H   -1.98420346  -2.08850732  -0.04904108
C   -2.17907746  -0.03018097  -0.64241722
H   -2.37646134   0.42236055   0.33054214
C   -1.49988543   1.00534481  -1.54209534
O   -0.35176947   1.60569822  -0.99413942
C    0.77403423   0.76105605  -0.90276063
H    1.63216453   1.43598723  -0.83365595
H    0.86950916   0.17011070  -1.82891466
H   -2.18669259   1.83657889  -1.72646504
H   -1.24901981   0.53776201  -2.50877758
H   -3.13536406  -0.28996640  -1.10184598
H   -0.98229683  -1.63605987  -1.42992054
H   -0.13015443  -1.70913724   1.35210423
H    2.84022665  -0.02957262   0.71795815
H    1.80135141   1.04240627   1.68678441
