21
Energy: 2.721
O   -0.74261336  -2.33328462   1.64264034
H   -0.65645784  -3.14379928   2.15463850
C    0.49775027  -2.04875151   1.02236951
C    0.36474082  -0.76890587   0.23927889
C    0.68101397  -0.70863561  -1.04771816
C    0.55153347   0.49888756  -1.92907304
H    0.54320425   0.17261387  -2.97069479
C   -0.72629928   1.28668713  -1.62949126
H   -1.53847612   0.58017464  -1.44802523
C   -0.54433702   2.20350518  -0.41481627
O    0.26560016   1.65881319   0.59712781
C   -0.13753554   0.39333034   1.06322284
H   -1.23267588   0.33528152   1.15254391
H    0.27965120   0.30685302   2.07184894
H   -1.53260666   2.47217048  -0.00659310
H   -0.02809411   3.12174691  -0.70834488
H   -1.00222657   1.90222178  -2.48750386
H    1.41797973   1.15217713  -1.79066781
H    1.06294432  -1.59894407  -1.53055545
H    0.79133018  -2.86915830   0.35319150
H    1.28224014  -1.92701014   1.78665065
