21
Energy: 1.891
O    0.82212289   2.27583650  -1.88405407
H    1.48665464   2.75482387  -2.38945907
C    1.47383066   1.47069508  -0.91915253
C    0.43896542   0.68496581  -0.16129603
C    0.34861505   0.73662048   1.16141552
C   -0.63604093  -0.05159962   1.97313173
H   -1.65278188   0.27542361   1.73087013
C   -0.53055397  -1.55931254   1.72249616
H   -1.07545683  -2.09299317   2.50416167
C   -1.11593206  -1.98593818   0.37352145
O   -0.39047940  -1.55043974  -0.74834252
C   -0.47569952  -0.16603628  -1.01115664
H   -1.51468756   0.17657128  -0.88277985
H   -0.20379640  -0.04849545  -2.06193895
H   -2.15858564  -1.63429274   0.30372319
H   -1.11225327  -3.07775539   0.30314142
H    0.51683660  -1.86259570   1.76513194
H   -0.46779360   0.14562748   3.03286937
H    1.03472496   1.36322788   1.71540892
H    2.05532501   2.09388048  -0.22541223
H    2.16038375   0.76651106  -1.41559744
