19
Energy: 1.819
C   -1.67601838  -2.80479320   0.33089093
C   -1.64856710  -1.30241429   0.54375927
H   -2.25508284  -0.77756188  -0.20214881
H   -2.02154751  -1.03935601   1.53960427
O   -0.29512759  -0.84825253   0.43828435
C   -0.10279752   0.42151971   0.09442608
O   -0.98500825   1.20924611  -0.12888165
C    1.37917990   0.73787153  -0.04610592
N    1.59704619   2.11555832   0.34720546
H    0.83194559   2.68781611   0.00227012
H    2.46313247   2.46784618  -0.04485939
C    1.76528085   0.42342477  -1.50396818
H    2.82113098   0.63662680  -1.65988177
H    1.58456255  -0.62512073  -1.72632780
H    1.17727541   1.03609597  -2.18553557
H    1.94635193   0.08389701   0.62611694
H   -1.30995573  -3.05189244  -0.66215737
H   -2.69418480  -3.16864611   0.43401931
H   -1.04522968  -3.29703726   1.06602582
