19
Energy: 1.022
C    0.31172566   0.33259444  -2.91577431
C   -0.04051465  -0.80270922  -1.96619040
H   -1.12386762  -0.95972742  -1.94983829
H    0.46779299  -1.72713983  -2.24854688
O    0.40274756  -0.52703676  -0.63639117
C   -0.39198687   0.23055310   0.12746017
O   -1.45062753   0.67574711  -0.23209869
C    0.19891942   0.43674089   1.52460479
N    1.58060005   0.03088648   1.67719143
H    1.67331081  -0.96257199   1.49266423
H    2.17251975   0.52005228   1.01503504
C   -0.68011243  -0.32143685   2.52319356
H   -0.31480340  -0.14341192   3.53019331
H   -1.70917217   0.01692115   2.44351489
H   -0.64135806  -1.39006206   2.32134206
H    0.13413338   1.51023629   1.74161227
H    1.38282030   0.52086831  -2.89980968
H   -0.21217309   1.23832225  -2.62006678
H    0.01295373   0.06741869  -3.92576782
