19
Energy: 0.098
C    0.16730623   1.78487618   2.43026018
C    0.87086559   0.51287057   1.98059013
H    1.92479460   0.52252826   2.26575909
H    0.37524027  -0.36533884   2.40708971
O    0.87302639   0.39404369   0.55493368
C   -0.20944520  -0.13511496  -0.01530077
O   -1.18114334  -0.51946873   0.58441525
C   -0.06262047  -0.21567284  -1.53650302
N   -1.31762516  -0.51194849  -2.19717779
H   -2.00167490   0.20942387  -1.99349352
H   -1.69158565  -1.38305820  -1.83170745
C    0.96864190  -1.29562116  -1.87326638
H    1.05710597  -1.37802936  -2.95261284
H    1.93457097  -1.03940568  -1.44775154
H    0.64721734  -2.25637343  -1.47638160
H    0.29939528   0.75403907  -1.89584550
H   -0.88220597   1.74811152   2.14855808
H    0.62819786   2.65390056   1.96681250
H    0.23817152   1.87780236   3.51014215
