19
Energy: 1.643
C   -2.37502911  -1.59085856   0.16030811
C   -0.96672544  -1.90430242   0.64435980
H   -0.98373717  -2.40065188   1.61666801
H   -0.44616222  -2.53045681  -0.08738808
O   -0.20579035  -0.71238576   0.85155291
C    0.37315433  -0.16067009  -0.22354544
O    0.30187204  -0.61558006  -1.33432202
C    1.09534115   1.13329168   0.16740872
N    0.18863461   2.08626246   0.79200793
H   -0.25160361   1.67051704   1.60552531
H   -0.54103792   2.35147174   0.13764312
C    1.75828248   1.76166629  -1.05121387
H    2.49848434   1.08486345  -1.46729280
H    1.01346895   1.96650236  -1.81637749
H    2.23630075   2.69259068  -0.76229216
H    1.85279663   0.87232237   0.91719149
H   -2.87921571  -0.93147815   0.86318258
H   -2.94196513  -2.51282090   0.07030956
H   -2.33380703  -1.10813011  -0.81313635
