19
Energy: 0.959
C    1.86432314   0.60988350  -2.01466093
C    2.02330847  -0.09681071  -0.67673907
H    2.63278130  -0.99775099  -0.77420828
H    2.46947458   0.58050515   0.05864887
O    0.76461143  -0.55125314  -0.17717861
C    0.01490696   0.33597029   0.48616405
O    0.35110444   1.46849088   0.71534446
C   -1.32878262  -0.26571193   0.90310001
N   -1.37674816  -1.71319941   0.92494810
H   -0.67958315  -2.08522784   1.56036329
H   -1.17547830  -2.08046568   0.00072536
C   -2.39051360   0.27161105  -0.06180231
H   -3.36419082  -0.11104342   0.22959843
H   -2.40424477   1.35753223  -0.03564107
H   -2.17543796  -0.05731080  -1.07660396
H   -1.54808479   0.10050576   1.91290465
H    1.38090176  -0.04689551  -2.73429837
H    2.84143149   0.89435894  -2.39407783
H    1.26044109   1.50552693  -1.89032218
