19
Energy: 1.914
C    0.26223835  -0.19059875  -2.80123728
C    1.20255484  -0.51345101  -1.64893514
H    1.68894123  -1.48032414  -1.79382102
H    1.95625310   0.27317450  -1.54387716
O    0.49122783  -0.63592790  -0.41579064
C    0.22624483   0.49159983   0.24578218
O    0.54065425   1.58866134  -0.13230266
C   -0.57760034   0.21962254   1.51054385
N   -0.04276302  -0.93181517   2.21134460
H   -0.02022227  -1.73537434   1.59277694
H   -0.63019045  -1.15893963   3.00648178
C   -2.05197745   0.07925498   1.08611698
H   -2.38205702   0.97392948   0.56443828
H   -2.16958819  -0.77844195   0.42575549
H   -2.67884336  -0.06374843   1.96444393
H   -0.47119790   1.09468537   2.16143352
H   -0.51407299  -0.94822722  -2.87994276
H    0.82278907  -0.15930424  -3.73099356
H   -0.20318373   0.77829385  -2.63804816
