19
Energy: 1.65
C   -0.41378151   1.47509551   2.42888725
C   -1.42806322   0.91913032   1.43998968
H   -2.28817546   0.48772451   1.95597961
H   -1.75793236   1.70529890   0.75329888
O   -0.87675915  -0.15540210   0.67593177
C   -0.16371795   0.16744093  -0.41160539
O    0.01968876   1.29511757  -0.78617268
C    0.39116612  -1.09662601  -1.07824004
N    1.14168736  -1.92289899  -0.14415739
H    0.56385152  -2.16371396   0.65363485
H    1.95276048  -1.41471424   0.19455220
C    1.26289809  -0.72848027  -2.27184704
H    2.08759480  -0.09651927  -1.95105091
H    1.66228607  -1.63324807  -2.71990500
H    0.68038076  -0.18255686  -3.00783617
H   -0.46974188  -1.69075854  -1.41133659
H   -0.05056500   0.68536297   3.08260664
H   -0.88033422   2.24801843   3.03252163
H    0.42783288   1.90814347   1.89353950
