19
Energy: 1.02
C   -2.43591226  -1.61400207  -0.39991245
C   -0.96652497  -1.71685928  -0.78080723
H   -0.44677729  -2.40122236  -0.10253239
H   -0.84785825  -2.05110503  -1.81371368
O   -0.32402774  -0.44212306  -0.72674719
C    0.12466597  -0.03394152   0.46535233
O    0.03113843  -0.67591836   1.47890155
C    0.80036153   1.33642056   0.37289917
N    0.53790058   2.07309414  -0.84603276
H   -0.45843551   2.21273802  -0.97246124
H    0.87690847   1.55068372  -1.64711629
C    2.30822426   1.12536806   0.53793161
H    2.51292873   0.62178232   1.47833847
H    2.69407100   0.52040397  -0.28020145
H    2.80824598   2.08925717   0.52470925
H    0.43219689   1.93193775   1.21724958
H   -2.90750601  -2.58675995  -0.50470769
H   -2.94497915  -0.90097432  -1.04441245
H   -2.52846959  -1.28747489   0.63308867
