19
Energy: 0.532
C   -1.12796123   0.90720216  -2.94233828
C   -0.29445190  -0.07788229  -2.14442343
H   -0.81163822  -1.03521486  -2.01835183
H    0.66711699  -0.26875051  -2.63417102
O   -0.03982663   0.48097613  -0.85167071
C    0.29534393  -0.36371473   0.12129145
O    0.41734727  -1.55406670  -0.02206804
C    0.49608465   0.35961394   1.45497067
N    1.13962347  -0.47847865   2.44603267
H    0.59049405  -1.32297868   2.57858971
H    2.05405180  -0.77199609   2.11825920
C   -0.86908191   0.82064194   1.97188783
H   -1.52768102  -0.03540286   2.10351111
H   -0.73843498   1.30900608   2.93314898
H   -1.32212485   1.51492376   1.27011457
H    1.12906197   1.23582785   1.27584163
H   -1.31184247   0.50806535  -3.93555575
H   -0.60305911   1.85449986  -3.03053447
H   -2.07987742   1.08214074  -2.44801904
