19
Energy: 1.524
C    3.04565202  -0.68307625  -0.52939741
C    2.04706715   0.27064808   0.09812505
H    2.21218929   0.37523349   1.17605868
H    2.10865725   1.26749543  -0.35246044
O    0.73164045  -0.24571993  -0.11543379
C   -0.27022343   0.40251148   0.48510079
O   -0.11638107   1.37021946   1.18435150
C   -1.62802675  -0.22457461   0.15996508
N   -1.57072726  -1.54764735  -0.42636139
H   -1.08012075  -2.18970290   0.18616560
H   -1.06350223  -1.51615159  -1.30460527
C   -2.36885996   0.72920277  -0.78184515
H   -1.82729497   0.82525876  -1.72082143
H   -3.35783886   0.33141520  -0.98914158
H   -2.45932384   1.70949154  -0.32281759
H   -2.18341734  -0.29244412   1.10324173
H    2.96607342  -1.66588369  -0.07219165
H    4.05254386  -0.30392225  -0.38185104
H    2.85500870  -0.77897297  -1.59507387
