19
Energy: 1.059
C    0.31937685   0.52026871   2.86902849
C    0.12599448   1.34788635   1.60702579
H   -0.91535865   1.67540993   1.52408459
H    0.79283383   2.21269833   1.59560715
O    0.46539277   0.59953774   0.43862542
C   -0.48909953  -0.17217170  -0.09336128
O   -1.60652359  -0.26416362   0.34334590
C    0.01196912  -0.88953982  -1.34866718
N    1.43370779  -1.17007626  -1.36512065
H    1.69298503  -1.75239476  -0.57640687
H    1.95740702  -0.30385670  -1.29481659
C   -0.35352513  -0.01681031  -2.55322199
H   -1.42742647   0.14370326  -2.58938062
H    0.14860506   0.94595575  -2.48271737
H   -0.03076278  -0.51317695  -3.46375491
H   -0.52775756  -1.84086451  -1.41759301
H    0.10212934   1.13040104   3.74095853
H    1.34416573   0.16138684   2.93284712
H   -0.35525291  -0.33248505   2.85945892
