19
Energy: 1.853
C   -2.38299668   0.97565589   1.30689628
C   -1.98957071   0.63639482  -0.12296396
H   -2.40150243  -0.33689551  -0.40930406
H   -2.32876432   1.40564257  -0.82022708
O   -0.56929175   0.59810976  -0.27463632
C    0.04877128  -0.53035354   0.07736675
O   -0.51523802  -1.52299492   0.45399168
C    1.55393090  -0.42898566  -0.13496570
N    2.04347557   0.84655110   0.35221469
H    1.54565967   1.60492702  -0.10189939
H    3.03089619   0.94365712   0.14105092
C    1.82303214  -0.68642204  -1.62960442
H    1.35051414   0.08760202  -2.23226149
H    2.89466279  -0.67699208  -1.82060266
H    1.42507486  -1.65417158  -1.92374170
H    2.02247329  -1.22261401   0.45783305
H   -2.04187105   0.19222126   1.97879547
H   -3.46375420   1.05712715   1.37838557
H   -1.93229749   1.91839398   1.60759586
