19
Energy: 0.526
C   -2.80273671  -1.65459776   0.14369481
C   -1.51334408  -1.30289836   0.86281269
H   -1.67407897  -0.53561627   1.62769290
H   -1.07838083  -2.18623157   1.34356705
O   -0.57279344  -0.80615571  -0.09491547
C    0.34596664   0.05648895   0.33403458
O    0.45840772   0.42429332   1.47610718
C    1.23924470   0.54294976  -0.80928410
N    2.44023474   1.19757718  -0.33190221
H    2.99912179   0.55214749   0.21650485
H    2.18151714   1.96122239   0.28641918
C    0.42996837   1.51263600  -1.67493641
H   -0.42808237   1.00551268  -2.10675992
H    0.08467925   2.35111148  -1.07359658
H    1.06472491   1.89358976  -2.46961436
H    1.52921779  -0.32440832  -1.41211929
H   -2.61129199  -2.40122813  -0.62224271
H   -3.22349127  -0.77118514  -0.32942966
H   -3.52040245  -2.05109451   0.85601673
