19
Energy: 1.249
C   -2.49388991   0.31922110   1.63606425
C   -1.64400699   1.27293405   0.80972627
H   -2.26321471   2.01087280   0.29559910
H   -0.91121918   1.77759535   1.44787353
O   -0.94937500   0.58049802  -0.23200133
C    0.19679676  -0.01329889   0.09341286
O    0.69499181   0.01335798   1.18823724
C    0.83859937  -0.67363893  -1.11833509
N    1.53145580  -1.86817344  -0.67834622
H    2.01251055  -1.67456311   0.19510630
H    2.21864226  -2.15709687  -1.36559417
C    1.74651318   0.38384534  -1.77454611
H    2.23527727  -0.04093215  -2.64936614
H    1.16138574   1.24552277  -2.08550067
H    2.50847452   0.71026036  -1.06847677
H    0.05111567  -0.96169197  -1.82383190
H   -3.19124787  -0.21432284   0.99495124
H   -3.05131966   0.87969483   2.38109300
H   -1.85572506  -0.40193482   2.14050817
