19
Energy: 1.528
C    1.09357379  -0.15898422  -2.96730012
C    0.82436896  -0.90298961  -1.67259575
H    0.07935829  -1.69433452  -1.80817257
H    1.74072666  -1.35799793  -1.28023485
O    0.33288861   0.02655859  -0.70457862
C   -0.34020577  -0.47471421   0.33469015
O   -0.55534249  -1.64836356   0.49359124
C   -0.78871443   0.62468101   1.30082911
N   -0.70988730   1.97353100   0.77954074
H   -1.26604655   2.06470360  -0.06336413
H    0.24994176   2.19632636   0.53731231
C    0.06222151   0.50716529   2.56871817
H    1.10907721   0.69271011   2.33664035
H   -0.27023502   1.24500633   3.29282682
H   -0.03598502  -0.48847658   2.99167140
H   -1.83497715   0.41782610   1.55665449
H    1.48360471  -0.84991111  -3.70887244
H    1.82055902   0.63180992  -2.80173951
H    0.17629758   0.28531076  -3.34504166
