19
Energy: 1.529
C   -1.16293629   2.39095742  -1.68827130
C   -0.20155113   1.21789730  -1.66506226
H   -0.35203696   0.56138377  -2.52937486
H    0.84187275   1.55126364  -1.66976541
O   -0.43561302   0.46334358  -0.47405443
C    0.44931672  -0.49555715  -0.18779263
O    1.40457659  -0.75090473  -0.87431150
C    0.11009041  -1.20784651   1.12392570
N   -1.22140213  -0.95621555   1.63495813
H   -1.92286731  -1.22622406   0.95441233
H   -1.34076880   0.03443333   1.81927780
C    1.15337134  -0.79294053   2.16544292
H    0.96619181  -1.32637197   3.09255314
H    2.15115764  -1.02677634   1.80570647
H    1.08685969   0.27589000   2.35830652
H    0.20616684  -2.28430005   0.93698281
H   -2.18982689   2.03518699  -1.66868719
H   -1.00555106   2.97183989  -2.59228464
H   -0.99933435   3.02923674  -0.82388885
