19
Energy: 2.421
C    2.24385663   1.55290747   1.49354688
C    0.76276947   1.49485763   1.16824925
H    0.16040576   1.30852531   2.06345166
H    0.42072722   2.43102053   0.71219010
O    0.54122281   0.43192434   0.23836935
C   -0.69052688  -0.07126029   0.17489767
O   -1.62004490   0.33914411   0.81810958
C   -0.78681020  -1.18633959  -0.85835687
N    0.36151820  -2.06659134  -0.75657194
H    1.21790573  -1.53176440  -0.85441063
H    0.33405428  -2.76074658  -1.49572440
C   -0.95653091  -0.51727616  -2.23545227
H   -1.08545308  -1.27747438  -3.00381297
H   -1.82955765   0.13019214  -2.23554215
H   -0.07568976   0.07738585  -2.47234313
H   -1.68534949  -1.76938733  -0.62735432
H    2.56610495   0.61557472   1.93912968
H    2.43159721   2.36221458   2.19308111
H    2.82100785   1.72492700   0.58881484
