19
Energy: 2.46
C    1.55326252   2.33475348   1.33099045
C    0.78251616   1.04938191   1.56608148
H    1.36915662   0.33575844   2.15466580
H   -0.15907976   1.23462904   2.09472694
O    0.48895041   0.45957695   0.29739627
C   -0.36372341  -0.56404656   0.29749306
O   -0.90635713  -0.98522344   1.28455968
C   -0.61642043  -1.08226140  -1.11244395
N    0.63583643  -1.19341231  -1.83606858
H    1.11435273  -0.29897340  -1.83977475
H    0.45901661  -1.46315873  -2.79779770
C   -1.64777058  -0.14310975  -1.76583615
H   -1.89940752  -0.50383736  -2.76157591
H   -2.55551890  -0.10516117  -1.16920506
H   -1.23688842   0.86184514  -1.84844127
H   -1.04775560  -2.08529677  -1.02070766
H    0.95771311   3.02927207   0.74419970
H    2.47435573   2.12552010   0.79371972
H    1.79514178   2.79423909   2.28479512
