19
Energy: 0.551
C   -0.99932984  -2.18339274  -2.27745889
C   -1.34189401  -1.31307683  -1.08211484
H   -2.23824920  -0.71385772  -1.27750345
H   -1.51352706  -1.91332447  -0.18225604
O   -0.25317788  -0.41729936  -0.83485620
C   -0.05007741  -0.02260381   0.42035755
O   -0.70891827  -0.37717589   1.36504576
C    1.12953172   0.94727953   0.52156231
N    1.58312793   1.12308336   1.88620178
H    0.80640097   1.44132606   2.45869308
H    1.88872341   0.23591462   2.27266622
C    0.70105584   2.29694483  -0.06040620
H   -0.15546293   2.68507228   0.48695670
H    1.52213326   3.00152157   0.03471602
H    0.43540862   2.18807749  -1.10798044
H    1.95689616   0.54377857  -0.07240298
H   -1.83030024  -2.84874929  -2.49314568
H   -0.11346602  -2.77782583  -2.06986746
H   -0.80489560  -1.56249398  -3.14780180
