19
Energy: 0.531
C   -0.51694198  -0.11807139  -3.27257167
C    0.44895103  -0.05448839  -2.10519333
H    1.02860043  -0.97962800  -2.01233887
H    1.15344493   0.77772011  -2.21434264
O   -0.30468405   0.13822402  -0.90382306
C    0.38016025   0.12880386   0.23792898
O    1.57496280  -0.01214030   0.30977608
C   -0.53325171   0.30904403   1.45224911
N    0.20836613   0.60230122   2.66175664
H    0.73776858   1.46085113   2.55041566
H    0.88299540  -0.13875544   2.82915193
C   -1.35210686  -0.97033728   1.64254329
H   -1.98181343  -0.86169288   2.52076419
H   -1.97320627  -1.15278677   0.77033920
H   -0.68900227  -1.81974267   1.79314916
H   -1.21157109   1.14487953   1.24802304
H   -1.20627185  -0.94821719  -3.14427088
H    0.03680601  -0.25510059  -4.19676960
H   -1.09032463   0.80286163  -3.33393455
