19
Energy: 1.022
C   -0.35709494   0.80291398  -2.81303195
C    0.80544313   0.65573125  -1.84264420
H    1.33518498  -0.28461052  -2.02615331
H    1.49695596   1.49720526  -1.92303743
O    0.35616639   0.67160814  -0.48674952
C   -0.06859646  -0.48659786   0.03024594
O   -0.08209360  -1.53007973  -0.56897498
C   -0.50178228  -0.32478204   1.48924049
N   -0.76473497   1.03687047   1.90703656
H   -1.48366614   1.45649872   1.32803060
H    0.07450181   1.59834850   1.80730643
C    0.59383622  -0.93433447   2.36898664
H    0.29247339  -0.87126082   3.41041093
H    0.75371164  -1.97426391   2.09890280
H    1.52541990  -0.38660898   2.24104558
H   -1.42311583  -0.90566808   1.61708036
H    0.02129661   0.84211556  -3.83033632
H   -0.91099980   1.71542390  -2.60450127
H   -1.02737733  -0.04814270  -2.71945580
