19
Energy: 1.534
C    1.42700170   1.15986436   2.51402621
C    0.38989068   0.15851197   2.04005541
H    0.54371226  -0.82007941   2.50843290
H   -0.62827311   0.49249841   2.26661773
O    0.51566535   0.00417574   0.62479467
C   -0.55907796  -0.42406301  -0.04293888
O   -1.60950995  -0.69837279   0.47679143
C   -0.29552968  -0.49560072  -1.54926173
N    1.09765894  -0.41524294  -1.93628534
H    1.63346669  -1.15816805  -1.50146872
H    1.49306672   0.46683955  -1.62769193
C   -1.08538373   0.63551513  -2.21426242
H   -0.95776342   0.57679751  -3.29104778
H   -2.13943387   0.54818880  -1.96695606
H   -0.71885748   1.60104102  -1.87139894
H   -0.69213769  -1.45665722  -1.89832859
H    1.35488082   1.27492313   3.59151941
H    1.26216835   2.12557180   2.04305701
H    2.42573751   0.81457741   2.25982188
