19
Energy: 1.251
C   -0.02368510   0.43270915   2.86410541
C   -1.10255717   0.70836718   1.82678196
H   -1.80892745  -0.12672071   1.78290883
H   -1.63378699   1.63652283   2.04605412
O   -0.53788167   0.90227854   0.52668016
C   -0.26259890  -0.18918645  -0.18433440
O   -0.47747294  -1.31574694   0.17925532
C    0.40877667   0.16778218  -1.50236679
N   -0.00012460  -0.79391044  -2.50597969
H   -0.02281339  -1.72162660  -2.09291068
H    0.65311533  -0.80329344  -3.28125940
C    1.92521096   0.20052322  -1.23134322
H    2.15907257   0.94537877  -0.47499880
H    2.26277470  -0.77464852  -0.88367226
H    2.45827336   0.45229963  -2.14621889
H    0.07595437   1.16517087  -1.81125884
H    0.48504629  -0.49952414   2.63128812
H   -0.47657330   0.34955648   3.84781275
H    0.70415591   1.24060763   2.87490950
