19
Energy: 1.523
C   -2.70594317  -0.88955622  -1.36586289
C   -1.64710282   0.18822706  -1.23314902
H   -1.21762057   0.45157473  -2.20605890
H   -2.05681270   1.10064153  -0.78595709
O   -0.60324684  -0.30474284  -0.39061364
C    0.42696643   0.51745621  -0.17325980
O    0.51480396   1.61910831  -0.65040606
C    1.46123011  -0.10500882   0.76762228
N    1.34196069  -1.53651998   0.95268909
H    1.41366347  -2.01956278   0.06405395
H    0.43535097  -1.76043063   1.34957869
C    1.34641185   0.60432181   2.12018195
H    1.48839865   1.67369124   1.99302056
H    0.36526589   0.42538184   2.55553206
H    2.10313709   0.21422115   2.79435290
H    2.44975282   0.10374284   0.34115479
H   -3.11214744  -1.13974203  -0.38930989
H   -2.27638632  -1.78668295  -1.80389083
H   -3.50950965  -0.53323384  -2.00355546
