19
Energy: 1.539
C   -1.34761744  -1.06357025  -2.60880089
C   -0.03623996  -0.89130725  -1.86573981
H    0.52621305  -1.83104449  -1.82991267
H    0.59793862  -0.13193960  -2.33580623
O   -0.32298201  -0.48265588  -0.52659406
C    0.68971737   0.02624014   0.18049000
O    1.81138549   0.14060995  -0.24092525
C    0.23740240   0.47054189   1.57334352
N   -0.99039470  -0.13720322   2.04393988
H   -0.90314702  -1.14710434   2.06970204
H   -1.75229248   0.08850907   1.41295788
C    0.08056348   1.99399186   1.54203172
H   -0.69584647   2.27619522   0.83369443
H   -0.20472366   2.34406377   2.52969059
H    1.01656585   2.46008914   1.24761545
H    1.04018162   0.20980598   2.27289874
H   -1.89288353  -0.12362881  -2.63349411
H   -1.96382118  -1.81037278  -2.11502014
H   -1.14884956  -1.38443641  -3.62707922
