19
Energy: 0.0
C    2.38209033   0.37012969   1.59066363
C    1.93924248   1.08911424   0.32486989
H    1.44500225   2.03285786   0.57767296
H    2.78458870   1.27642916  -0.34015666
O    1.03572787   0.28583143  -0.43971920
C   -0.25062980   0.31374037  -0.09097668
O   -0.70838651   1.00050782   0.78669046
C   -1.08604503  -0.63946279  -0.94808773
N   -2.50810324  -0.39062148  -0.82601142
H   -2.72902013   0.54996256  -1.13617201
H   -2.77533765  -0.44794812   0.15259405
C   -0.77193987  -2.07533159  -0.51907326
H   -1.38257308  -2.76112315  -1.09903273
H    0.27874330  -2.29600105  -0.68405038
H   -1.00417348  -2.20978078   0.53541918
H   -0.79584041  -0.50343724  -1.99557289
H    1.52695348   0.20337876   2.24117928
H    3.11188186   0.97726593   2.11843224
H    2.82980930  -0.58909835   1.34184069
