19
Energy: 1.526
C    0.65476574   0.51065509  -3.03859853
C    0.66157476  -0.48479902  -1.89429114
H    0.12448203  -1.40259145  -2.15824678
H    1.68218269  -0.76061679  -1.60705006
O    0.01598671   0.11503101  -0.76917150
C   -0.00965623  -0.60258199   0.35733296
O    0.46442499  -1.70441390   0.45864695
C   -0.68932912   0.15775832   1.49834161
N   -1.51895848   1.27143194   1.08670582
H   -2.25255527   0.95912243   0.46022087
H   -0.95926742   1.95389316   0.58611392
C    0.40925551   0.65250408   2.44415878
H   -0.04776473   1.16165659   3.28752409
H    0.99924263  -0.18648410   2.80188399
H    1.06280299   1.35185117   1.92649599
H   -1.32095959  -0.56118454   2.03348804
H    1.18798710   1.41405214  -2.75432210
H   -0.36625603   0.77697056  -3.29898926
H    1.13891654   0.07118480  -3.90566748
