19
Energy: 1.789
C    2.93915168   1.54962765  -0.29975975
C    1.43033411   1.59979118  -0.15482682
H    1.13386666   2.09275678   0.77794446
H    0.96477112   2.13934644  -0.98668165
O    0.93170554   0.25800534  -0.14366163
C   -0.38935587   0.11689673  -0.09230082
O   -1.16685690   1.03479181  -0.05266881
C   -0.79217187  -1.34907700  -0.02916931
N   -2.04807643  -1.51260895  -0.73350479
H   -2.65547335  -0.72605734  -0.52294839
H   -2.51405541  -2.36472272  -0.44238251
C   -0.84346177  -1.73407540   1.46163788
H   -1.13153682  -2.77872988   1.56315842
H    0.13070897  -1.59441549   1.92318076
H   -1.57296412  -1.11485565   1.98127770
H   -0.02441738  -1.94930961  -0.53058083
H    3.37763746   1.00284424   0.53057943
H    3.33820140   2.55966349  -0.31113070
H    3.20897044   1.04949265  -1.22575847
