19
Energy: 1.814
C    1.15551649  -2.00350377   2.30567300
C    1.05166872  -0.56921165   1.81929783
H    0.28582659  -0.01135677   2.36855348
H    2.00867543  -0.04784125   1.92941121
O    0.70749859  -0.57553332   0.42981667
C   -0.00897939   0.44500336  -0.03172751
O   -0.38256813   1.37541711   0.63380129
C   -0.35571727   0.25408699  -1.50131999
N   -0.39117387   1.55405699  -2.14047556
H   -0.83603103   2.22229425  -1.51814761
H   -0.92277091   1.51500462  -3.00295937
C   -1.69020548  -0.51448217  -1.54615544
H   -2.46597406   0.05666758  -1.03860967
H   -1.98945664  -0.67414488  -2.58031055
H   -1.58757691  -1.48101429  -1.05950942
H    0.42559541  -0.35146170  -1.97450595
H    1.44549490  -2.01287109   3.35230757
H    1.90016561  -2.54115743   1.72514321
H    0.19948112  -2.50933577   2.19850026
