19
Energy: 1.792
C   -1.19787803  -0.57502062  -3.03768421
C   -1.07057133   0.36055691  -1.84936696
H   -0.77522091   1.36578410  -2.17069186
H   -2.01066801   0.43517913  -1.29285495
O   -0.05817821  -0.14387516  -0.97189048
C   -0.17512255   0.13250739   0.32339747
O   -1.06496123   0.78319825   0.80627832
C    0.99342130  -0.43506950   1.11631456
N    0.51376849  -0.82825537   2.42610619
H   -0.14067795  -0.13015169   2.76704105
H    1.28242926  -0.89569985   3.08380418
C    2.08681865   0.64991464   1.13771434
H    2.40238747   0.89045628   0.12571508
H    1.70653902   1.55258084   1.61332548
H    2.94950178   0.29302240   1.69714633
H    1.37548193  -1.32227969   0.59861713
H   -0.24917404  -0.64423268  -3.56297548
H   -1.95538150  -0.19788484  -3.71865134
H   -1.48338567  -1.56880945  -2.70347227
