22
Energy: 1.847
C    2.26675605  -1.47751555  -2.26853119
C    1.31106176  -0.61533689  -1.50107082
N    0.41498835   0.01830765  -2.10399868
H   -0.20961343   0.59213017  -1.54557547
O    1.59690158  -0.65603850  -0.17009041
C    0.79847202   0.09189580   0.72884785
C   -0.50974757  -0.62902566   1.05935769
C   -1.33900479   0.09837758   2.11723547
C   -1.80460521   1.48694623   1.66126869
O   -2.39817350   1.47978665   0.38629649
H   -3.16765670   0.89961381   0.40335934
H   -2.49865490   1.89792373   2.40902778
H   -0.95558005   2.16882786   1.58191216
H   -0.76070739   0.21274902   3.03537970
H   -2.21601678  -0.51332702   2.34615924
H   -1.09854195  -0.73262261   0.14504083
H   -0.26812063  -1.63269288   1.41567757
H    0.59975805   1.08705666   0.31333649
H    1.40916054   0.20220880   1.62946276
H    2.02865248  -1.42119467  -3.32467440
H    2.18971477  -2.50552811  -1.92214001
H    3.28485613  -1.13669329  -2.09580714
