22
Energy: 1.801
C   -1.44124649   3.19447669  -1.08431598
C   -0.50085548   2.30665760  -0.32932116
N    0.72506016   2.56571966  -0.30755415
H    1.31979330   1.93291629   0.21823360
O   -1.17753115   1.28898583   0.26688170
C   -0.46542866   0.31801116   1.01020931
C    0.16718955  -0.74828788   0.11506153
C    0.90176691  -1.80654278   0.93317695
C    1.41970159  -2.93852808   0.04210104
O    0.39006764  -3.62681178  -0.62305635
H   -0.21831997  -3.98534097   0.03316960
H    2.05482250  -2.53370668  -0.74903505
H    2.01935423  -3.63493177   0.64701139
H    0.22336379  -2.22264270   1.68424512
H    1.74740092  -1.35842818   1.45825642
H   -0.61716347  -1.22440607  -0.47651457
H    0.86320754  -0.27623095  -0.58203626
H   -1.21165306  -0.13447154   1.66946438
H    0.29930235   0.79890840   1.63660988
H   -0.88380504   4.01440026  -1.52276486
H   -2.20384311   3.57682016  -0.41009763
H   -1.93515095   2.61981321  -1.86440150
