22
Energy: 1.734
C   -1.53205631   1.59796189   1.71860777
C   -0.92533251   0.23966982   1.55790415
N   -1.48276402  -0.76806551   2.04661346
H   -1.02456696  -1.66332618   1.91151042
O    0.24043338   0.32026028   0.85351484
C    0.96165489  -0.85882292   0.53498701
C    0.36623524  -1.63468219  -0.64679866
C   -0.02110480  -0.75306137  -1.83954914
C    1.09655312   0.17761477  -2.32562201
O    1.07895725   1.44004643  -1.70711773
H    0.92081074   1.31874097  -0.76073303
H    2.07490457  -0.30889838  -2.18415541
H    0.97424033   0.37935678  -3.39326148
H   -0.88441587  -0.13682204  -1.57764394
H   -0.32293954  -1.41104312  -2.65573201
H    1.10909934  -2.37157003  -0.95874328
H   -0.52630829  -2.17487835  -0.32249862
H    1.03468239  -1.51095060   1.41535969
H    1.96845400  -0.50908696   0.29183619
H   -2.46597293   1.50958064   2.26182592
H   -1.70727756   2.04095927   0.74062488
H   -0.84475565   2.24204294   2.26255531
