22
Energy: 1.954
C   -2.39048897  -1.65034784  -1.40528601
C   -0.91696101  -1.64455596  -1.13861243
N   -0.35583558  -2.67294032  -0.69427594
H    0.64449736  -2.61937099  -0.53007546
O   -0.37856229  -0.43531439  -1.45296822
C    1.00002247  -0.20706845  -1.23283838
C    1.31060923   0.12421920   0.22917335
C    0.61675271   1.41066859   0.66695576
C    0.87260466   1.71995892   2.14256008
O    0.19187254   2.86949369   2.58277234
H    0.45417266   3.61629067   2.03278610
H    0.50064167   0.90584807   2.76911447
H    1.95485775   1.82270245   2.31694436
H   -0.45882337   1.31697105   0.50533418
H    0.97632348   2.24376462   0.05507596
H    0.97773479  -0.69814507   0.86630851
H    2.39229566   0.22419400   0.34020435
H    1.24933993   0.64355536  -1.87299790
H    1.58869922  -1.07365426  -1.56367631
H   -2.57610181  -1.37580934  -2.44080637
H   -2.87838208  -0.91698631  -0.76713386
H   -2.78624385  -2.63893044  -1.20208308
