22
Energy: 0.907
C   -2.16753479   1.33457945   1.09623268
C   -0.72993255   1.57801298   0.75891521
N   -0.29768808   2.74318124   0.60794770
H    0.68710557   2.84480167   0.38463652
O   -0.05257716   0.40126540   0.65581618
C    1.31743916   0.41867987   0.28248241
C    1.77665033  -1.02139124   0.07130035
C    1.37375410  -1.61151742  -1.28349213
C   -0.13065370  -1.52666241  -1.58298601
O   -0.93720535  -2.05732560  -0.56531956
H   -0.85425040  -1.47021252   0.19880883
H   -0.40953912  -0.48311644  -1.78766245
H   -0.34885483  -2.11414230  -2.47873134
H    1.67582086  -2.66004290  -1.29557761
H    1.90659405  -1.09490511  -2.08441902
H    2.86421187  -1.05199336   0.15402510
H    1.36282678  -1.63175142   0.87636131
H    1.90346134   0.88836091   1.08451049
H    1.45035966   1.00250395  -0.63867027
H   -2.62331591   0.70557256   0.33433448
H   -2.68525058   2.28538015   1.15271232
H   -2.23738900   0.81679931   2.05043043
