22
Energy: 1.379
C   -0.32727325  -0.26056585   3.51372153
C   -0.11902279  -0.45339317   2.04239099
N    0.70257300  -1.30552809   1.63166985
H    0.79756911  -1.40559189   0.62561264
O   -0.91957491   0.38578460   1.33193415
C   -0.83382187   0.38805692  -0.08266946
C    0.34005040   1.23982977  -0.57386974
C    0.45118431   1.27323383  -2.09765235
C    0.89262800  -0.06020137  -2.70968309
O   -0.08402903  -1.07315233  -2.64164542
H   -0.85576009  -0.79703271  -3.14830329
H    1.18986054   0.10456358  -3.75545509
H    1.75644333  -0.45363769  -2.16835894
H    1.18826795   2.02787588  -2.37724754
H   -0.51009803   1.56763880  -2.52854542
H    0.20599610   2.25629046  -0.19641088
H    1.26869596   0.84991637  -0.15035375
H   -1.78018623   0.81873921  -0.42267730
H   -0.75663487  -0.63599338  -0.46575232
H    0.30559860  -0.95273217   4.05752751
H   -1.37184183  -0.43596802   3.75984115
H   -0.08167365   0.76333748   3.78611225
