22
Energy: 2.009
C    2.91583975  -1.06998062   2.25911638
C    1.57898257  -1.10225747   1.58550612
N    1.16635284  -2.16272492   1.06050195
H    0.25262843  -2.13241374   0.61918930
O    0.97319408   0.11300672   1.66340125
C   -0.29479344   0.30066357   1.06450849
C   -0.19230684   0.54880297  -0.44215276
C   -1.56384463   0.79275060  -1.06165306
C   -1.46357487   1.04884075  -2.56741526
O   -2.70793604   1.34552283  -3.15115785
H   -3.30749719   0.60559687  -3.00288739
H   -0.83843659   1.92414359  -2.75775025
H   -1.00189525   0.18074247  -3.06114011
H   -2.03636801   1.65655274  -0.58949923
H   -2.20628718  -0.07619522  -0.88728652
H    0.44997899   1.41574571  -0.60792080
H    0.28319870  -0.31052098  -0.92169836
H   -0.71596193   1.17823618   1.56209818
H   -0.94741985  -0.55905211   1.27134837
H    3.36766438  -2.05386068   2.20353647
H    2.79403197  -0.77123763   3.29748372
H    3.55281648  -0.33792544   1.76820799
