22
Energy: 1.764
C   -0.57432039  -1.30512183   3.07358118
C   -0.43878863  -0.08740964   2.21135147
N   -1.12244973   0.93349681   2.45897281
H   -0.99170353   1.73404787   1.84845311
O    0.47838898  -0.29533655   1.23065548
C    0.73043476   0.72496943   0.27973070
C   -0.32509640   0.76165339  -0.82741867
C   -0.36711287  -0.54216189  -1.62713652
C    0.76220942  -0.62908887  -2.65651615
O    0.72580845   0.41971067  -3.59541723
H   -0.12392562   0.39745289  -4.04997429
H    1.73566292  -0.54613940  -2.16971975
H    0.71554804  -1.60281425  -3.16586073
H   -1.32463659  -0.61032034  -2.15123844
H   -0.29354339  -1.39145119  -0.94652417
H   -1.30507626   0.93984483  -0.37905500
H   -0.09485199   1.59108504  -1.49866411
H    1.71178243   0.48568159  -0.13526029
H    0.79611656   1.70226132   0.77639837
H   -1.28634960  -1.10401891   3.86591772
H    0.39395286  -1.56286641   3.49588901
H   -0.91540646  -2.14344987   2.47033224
