22
Energy: 1.727
C    1.69330380  -1.77431085   1.30426310
C    0.29590124  -1.26491147   1.47786101
N   -0.47006183  -1.79658614   2.31034379
H   -1.40698777  -1.41721207   2.40387797
O    0.07701151  -0.21596314   0.63340691
C   -1.17621997   0.44452633   0.55266203
C   -1.66736845   0.50759997  -0.89460039
C   -0.93001231   1.51052595  -1.78662014
C    0.48353398   1.08633529  -2.20985919
O    1.46748266   1.32984592  -1.24174530
H    1.23745143   0.81580886  -0.45401708
H    0.47500096   0.02388171  -2.49830312
H    0.78592022   1.67307088  -3.08164922
H   -0.86399387   2.47566172  -1.28030247
H   -1.52120004   1.64725597  -2.69406165
H   -1.59735640  -0.49159385  -1.33138674
H   -2.72274382   0.78669981  -0.86290408
H   -1.04917082   1.45500952   0.95909588
H   -1.92224076  -0.08105221   1.16002540
H    1.84680196  -2.62275769   1.96130407
H    2.40274572  -0.98546203   1.54502500
H    1.85307110  -2.06887718   0.26953707
