22
Energy: 1.811
C   -2.83138862   0.62327334   2.17916529
C   -1.52089266   0.06062031   1.72044029
N   -1.03334776  -0.93911670   2.30003051
H   -0.14188511  -1.27940792   1.95286155
O   -1.02714343   0.77997411   0.68087145
C    0.19982764   0.39809283   0.08393906
C    0.01452787  -0.75043910  -0.91105114
C    1.32681691  -1.19155946  -1.55784375
C    1.95259138  -0.13053722  -2.46839425
O    2.50791097   0.96305133  -1.77671409
H    3.20688725   0.64244506  -1.19601555
H    2.72029168  -0.60529268  -3.09712057
H    1.19079673   0.29809726  -3.12328713
H    1.13481544  -2.08086035  -2.16072494
H    2.04652037  -1.46541712  -0.78032335
H   -0.43400894  -1.60274649  -0.39341209
H   -0.68557293  -0.42845927  -1.68434137
H    0.93045510   0.12266383   0.85776514
H    0.55998598   1.29110214  -0.43014366
H   -3.19767712   0.03958094   3.01614996
H   -3.54673750   0.59360921   1.36060214
H   -2.69839141   1.66096540   2.47570010
