22
Energy: 1.851
C    0.56868565   2.74120596  -2.16312658
C    0.64141054   1.55606470  -1.24886297
N    1.41364056   0.60643760  -1.51308440
H    1.42983875  -0.17738796  -0.86774353
O   -0.20434055   1.71658960  -0.19361320
C   -0.29354927   0.69322102   0.78093678
C   -1.19865382  -0.45086523   0.32019090
C   -1.42294494  -1.50481750   1.40391204
C   -0.13572046  -2.23930922   1.79838798
O    0.57959510  -2.73245294   0.69257871
H    0.01933280  -3.34951750   0.20843567
H    0.55127446  -1.56185748   2.30938118
H   -0.38482134  -3.05491615   2.49304988
H   -2.14686601  -2.23397105   1.02963276
H   -1.84437108  -1.04173338   2.29750123
H   -2.16026270  -0.02751658   0.02211643
H   -0.75505655  -0.92381165  -0.55897955
H   -0.71605853   1.17817055   1.66558341
H    0.70859658   0.32226019   1.02743004
H   -0.43087148   2.81303507  -2.58604600
H    1.29826910   2.62515568  -2.95652652
H    0.76518521   3.65043154  -1.60034724
