22
Energy: 1.905
C   -0.62166429  -3.45426902   0.95071769
C   -0.04904307  -2.07077707   0.97281447
N   -0.13430937  -1.37335282   2.01042646
H    0.26690791  -0.44171014   1.97227974
O    0.52617661  -1.77088435  -0.22239270
C    1.11148608  -0.49702052  -0.41527893
C    0.07405429   0.57127886  -0.76269615
C    0.72630728   1.92738665  -1.01658188
C   -0.32374081   3.00928317  -1.28300050
O   -1.19930716   3.20315258  -0.20056299
H   -0.68517360   3.45097235   0.57635922
H    0.18022622   3.95182076  -1.54383582
H   -0.96056302   2.71521372  -2.12024393
H    1.39482747   1.86641165  -1.87690725
H    1.32504800   2.21582696  -0.14681116
H   -0.47060808   0.25221608  -1.65328095
H   -0.65069841   0.66368687   0.04953473
H    1.80856786  -0.62911841  -1.24766436
H    1.68932145  -0.20330117   0.47261016
H   -1.03300892  -3.68595735   1.92662102
H    0.15597254  -4.16839600   0.69077478
H   -1.40158083  -3.51144973   0.19493363
