22
Energy: 0.711
C    1.72391254   2.02101956  -0.92771780
C    1.28282182   0.64548439  -1.31522622
N    1.94627658  -0.03526251  -2.12822223
H    1.60277694  -0.96483986  -2.34549933
O    0.12859811   0.30784503  -0.66774637
C   -0.41873524  -0.98677407  -0.86958445
C   -1.73268594  -1.11677205  -0.10255421
C   -1.59052549  -1.31982695   1.41021583
C   -1.32421560  -0.03808866   2.21061331
O   -0.00482908   0.42633999   2.12408984
H    0.18582406   0.57497852   1.18514878
H   -2.03125437   0.74311514   1.89037491
H   -1.49430693  -0.23752352   3.27223775
H   -0.78890925  -2.03260391   1.61465866
H   -2.52296286  -1.74878640   1.78182757
H   -2.33731224  -0.22897068  -0.29937081
H   -2.25694739  -1.97925875  -0.51864807
H    0.29836141  -1.74817227  -0.53309262
H   -0.60903705  -1.13171352  -1.94206592
H    2.59606416   2.29213328  -1.51198501
H    1.96941354   2.04048176   0.13269232
H    0.91824885   2.73014798  -1.10376844
