22
Energy: 1.785
C   -1.08690508  -1.12494403   2.12653834
C    0.22650139  -0.81558798   1.48089347
N    1.13924332  -0.26315958   2.13851867
H    2.00345965  -0.06045319   1.64560414
O    0.22415841  -1.21377126   0.17905480
C    1.28731803  -0.82259123  -0.66712442
C    1.20502652   0.64916953  -1.08489453
C    0.10217569   0.92896254  -2.10699388
C   -1.30556411   0.78454602  -1.52094101
O   -1.54107369   1.64655604  -0.43302621
H   -1.39244125   2.55527514  -0.71822950
H   -2.04568745   0.96088551  -2.31644393
H   -1.44996743  -0.22333745  -1.12977851
H    0.19773978   0.24695046  -2.95386630
H    0.22591056   1.94974154  -2.48213426
H    1.02466451   1.25764155  -0.19545676
H    2.16877946   0.93701407  -1.51013594
H    1.20749067  -1.47355201  -1.54208085
H    2.25216879  -1.02029870  -0.17892216
H   -1.39363799  -2.13841339   1.88167646
H   -1.83142945  -0.43344001   1.73561417
H   -1.00130785  -0.99888336   3.19977463
