22
Energy: 1.471
C    0.70385798  -2.54429878  -1.67272422
C   -0.31533921  -1.50923046  -1.30504427
N   -0.87504277  -0.83652155  -2.20141676
H   -1.55962698  -0.14868687  -1.90407571
O   -0.49070438  -1.46845042   0.04300170
C   -1.41464019  -0.55023447   0.60018851
C   -0.83446261   0.85850393   0.73459779
C    0.37679071   0.87962883   1.66466742
C    1.06259353   2.24680153   1.66012588
O    1.52956136   2.62221762   0.38751815
H    2.12338372   1.93650360   0.06072790
H    0.35241905   3.02563891   1.94817146
H    1.88871407   2.24440334   2.38695614
H    1.08904764   0.11638720   1.33844867
H    0.07110419   0.63948495   2.68444936
H   -0.52995884   1.22941777  -0.24678092
H   -1.61195006   1.52038381   1.12005306
H   -1.64888663  -0.95569865   1.58841955
H   -2.33741426  -0.53108103   0.00496037
H    0.37118533  -3.52089141  -1.32882970
H    1.65002057  -2.31865793  -1.18625474
H    0.83092301  -2.55253100  -2.74931721
