22
Energy: 1.624
C   -2.50561359   0.59248387   2.00142463
C   -1.52409864  -0.51101668   1.75235350
N   -1.65379633  -1.61319948   2.33512802
H   -0.95931269  -2.32428333   2.12931202
O   -0.57106765  -0.12405843   0.86657580
C    0.44509880  -1.04802216   0.51360809
C    1.38279561  -0.37518536  -0.48064533
C    0.67901378  -0.05172315  -1.79684042
C    1.57203300   0.78006732  -2.71843128
O    1.93903602   2.01569259  -2.15533425
H    1.13697444   2.48766622  -1.90306402
H    2.51263596   0.25708063  -2.90710439
H    1.06170879   0.93447237  -3.68112127
H   -0.23500320   0.50703058  -1.57975867
H    0.39976655  -0.97315042  -2.31113072
H    1.75870583   0.55012966  -0.04137095
H    2.23111537  -1.03624132  -0.66423089
H   -0.00712740  -1.94334401   0.06303481
H    1.00144241  -1.34837222   1.41254934
H   -2.99605359   0.86345150   1.06923960
H   -1.98263144   1.46826794   2.37831875
H   -3.24133509   0.25774874   2.72379846
