22
Energy: 1.854
C    1.32553806  -1.92881911   2.04100869
C    0.61039994  -0.63012197   1.80904618
N    1.11742263   0.44447526   2.20596800
H    0.59725558   1.29643164   2.02435953
O   -0.56748304  -0.84077811   1.16229181
C   -1.39009871   0.26379928   0.82928845
C   -0.92834749   0.97064764  -0.44590468
C   -0.99446064   0.04125314  -1.65617997
C   -0.33390492   0.67187963  -2.88309483
O    1.02888940   0.95816200  -2.68447626
H    1.48089156   0.14643187  -2.42669090
H   -0.46423041   0.00834832  -3.75109775
H   -0.80070400   1.63317089  -3.11079805
H   -2.03353506  -0.19376740  -1.89303793
H   -0.48404141  -0.89506158  -1.41303708
H   -1.56113129   1.84438799  -0.61067146
H    0.10120922   1.31541960  -0.32480365
H   -1.43462996   0.97127994   1.66804277
H   -2.38622955  -0.16317219   0.68371181
H    2.29174861  -1.90546381   1.54404572
H    0.72920926  -2.75077513   1.65656371
H    1.49933494  -2.06191037   3.10501870
