22
Energy: 1.497
C    2.84954520   1.11283317  -0.13434332
C    1.38162710   1.06948820   0.17230841
N    0.99495437   1.12303173   1.36359890
H   -0.00801493   1.11918650   1.52450910
O    0.66693456   0.98102309  -0.97671588
C   -0.73970919   0.79246893  -0.97201499
C   -1.08518328  -0.60633011  -1.48821551
C   -0.71564893  -1.72782474  -0.51448430
C   -1.66029151  -1.83892671   0.68763562
O   -1.51643307  -0.80478122   1.63136504
H   -0.63263743  -0.85576374   2.01730622
H   -2.69911970  -1.78333719   0.35204558
H   -1.50769865  -2.81337544   1.17366850
H    0.30775162  -1.58067259  -0.15810298
H   -0.74707828  -2.67894761  -1.04924510
H   -2.15564729  -0.64139915  -1.69666149
H   -0.54808450  -0.75750537  -2.42690984
H   -1.15295706   1.54738319  -1.64948715
H   -1.16854841   0.94475816   0.02251982
H    3.13980615   0.21644632  -0.67782961
H    3.40686715   1.18526350   0.79287061
H    3.06195180   1.97349140  -0.76402603
