22
Energy: 1.802
C    2.33871631   1.92460645   0.79515071
C    1.46846167   0.76794537   1.18364660
N    1.89555863  -0.09995238   1.98101252
H    1.26429876  -0.86201780   2.20673677
O    0.26131549   0.84025256   0.57025573
C   -0.70102666  -0.16941768   0.84218033
C   -1.94986534   0.12983499   0.01926797
C   -1.69767162   0.06861591  -1.48819513
C   -1.42937825  -1.34331008  -2.01583376
O   -0.19141910  -1.88250791  -1.61621233
H    0.50970063  -1.28059239  -1.89145828
H   -2.18306268  -2.03834828  -1.63722485
H   -1.49354325  -1.33117766  -3.11450117
H   -0.84916872   0.71347282  -1.72956507
H   -2.57538170   0.45872249  -2.00650878
H   -2.72313512  -0.58878404   0.29530294
H   -2.30009998   1.13097647   0.27786133
H   -0.95009883  -0.16165404   1.91277036
H   -0.29946134  -1.15430788   0.57592808
H    1.85996215   2.85605719   1.08860717
H    2.47471203   1.93805785  -0.28383874
H    3.29863780   1.82867364   1.28964912
