22
Energy: 1.762
C    3.29983932  -0.38244971   0.70823970
C    2.24530245   0.06901994  -0.25548612
N    2.44218646  -0.03021584  -1.48932564
H    1.69967360   0.29325826  -2.10148095
O    1.16691659   0.55935574   0.41003874
C    0.03956401   1.01111738  -0.32068023
C   -0.86439287  -0.14042074  -0.76559500
C   -1.44303837  -0.91060249   0.42324798
C   -2.63231762  -0.18719816   1.05937290
O   -3.69518670   0.01122181   0.15721364
H   -3.97843316  -0.84668209  -0.17898208
H   -2.97489970  -0.75317982   1.93805136
H   -2.34475792   0.81268831   1.38958165
H   -0.66881706  -1.05460560   1.17808446
H   -1.77353592  -1.89680142   0.08505484
H   -1.68072559   0.26982051  -1.36301009
H   -0.28668023  -0.82467660  -1.39101918
H    0.35959118   1.60215941  -1.18917214
H   -0.49328404   1.67262473   0.36567618
H    2.90301171  -1.17419542   1.33958249
H    3.58957755   0.44806090   1.34752646
H    4.15831329  -0.74444570   0.15398188
