22
Energy: 1.857
C   -1.56369906  -1.25809879  -1.95351177
C   -0.77090302  -0.02961977  -1.62962488
N   -0.09460676   0.53648371  -2.51756813
H    0.43444183   1.35976878  -2.24866152
O   -0.91813858   0.30276601  -0.31394349
C   -0.26105786   1.45320309   0.19476600
C    1.18060232   1.16214042   0.62434303
C    1.29059205   0.52796543   2.01427213
C    0.44226590  -0.73940263   2.19341900
O    0.69246859  -1.72193589   1.22096075
H    0.32610317  -1.39852195   0.38930136
H    0.68686129  -1.19910369   3.15437756
H   -0.62351897  -0.47551952   2.19992356
H    0.98059749   1.25022782   2.77201582
H    2.33838172   0.27819597   2.18988894
H    1.64311625   0.50305416  -0.11519120
H    1.74017211   2.09960694   0.62662765
H   -0.85964972   1.77271021   1.05189303
H   -0.28390846   2.25406293  -0.55554824
H   -2.60385248  -1.10577327  -1.67525338
H   -1.18333794  -2.10749623  -1.38901337
H   -1.48556224  -1.46023309  -3.01585346
