22
Energy: 1.803
C   -0.09065804  -1.68751367   2.77233258
C    0.65771893  -1.49050942   1.48979784
N    0.98209199  -2.48184680   0.79553367
H    1.49180573  -2.29775665  -0.06282990
O    0.89148030  -0.16888371   1.26984348
C    1.57160692   0.23343234   0.09529146
C    0.65001513   0.28384029  -1.12597844
C   -0.45653127   1.31857877  -0.94481253
C   -1.43411637   1.31609380  -2.12093297
O   -2.41184914   2.32194377  -2.01530852
H   -2.89207903   2.20242043  -1.18824020
H   -0.90257312   1.52578311  -3.05239426
H   -1.90730452   0.32633213  -2.20918367
H   -0.01913305   2.31495494  -0.85174602
H   -0.99975466   1.10300464  -0.02034707
H    1.25031910   0.52758910  -2.00419219
H    0.20106169  -0.70000885  -1.28306719
H    2.42675069  -0.42910699  -0.09527190
H    1.95218871   1.23326433   0.31992786
H   -0.23785267  -2.74837426   2.94008178
H   -1.05224153  -1.18240761   2.71674010
H    0.47333497  -1.25258109   3.59396942
