22
Energy: 1.71
C   -0.09077097   0.08030912   2.85373421
C   -0.97654614   0.09428314   1.64667148
N   -2.02829853  -0.58740113   1.63071458
H   -2.59573094  -0.53921053   0.79026512
O   -0.46500997   0.91153522   0.68811255
C   -1.11904878   1.01782357  -0.56231850
C   -0.86057934  -0.17426452  -1.48922566
C    0.56031647  -0.21422849  -2.04856323
C    1.61970268  -0.48011604  -0.97601776
O    2.91659380  -0.57491012  -1.51489515
H    2.93227912  -1.28331366  -2.16836430
H    1.66041842   0.34794916  -0.26711006
H    1.36276749  -1.39883520  -0.42609533
H    0.78988139   0.73004396  -2.54667010
H    0.61559699  -1.00925863  -2.79930822
H   -1.05990329  -1.10170923  -0.94664598
H   -1.56657240  -0.10924482  -2.31987512
H   -0.72425586   1.93425148  -1.00827268
H   -2.19983669   1.14569289  -0.40906768
H    0.02737335   1.09298483   3.23154062
H    0.89221368  -0.29529360   2.57841032
H   -0.53253649  -0.55333766   3.61440394
