22
Energy: 1.822
C   -2.45880298  -2.19943460   1.15603262
C   -1.74383575  -1.79074742  -0.09474148
N   -2.16726596  -2.16508274  -1.21391608
H   -1.64159216  -1.86035268  -2.02710287
O   -0.66525602  -1.01874541   0.19181832
C    0.12999359  -0.53586763  -0.87768429
C    1.25349701   0.31168123  -0.29539538
C    0.72466404   1.56671267   0.39545035
C    1.86709594   2.44936617   0.90024244
O    2.69418148   2.92076738  -0.13698267
H    2.15412632   3.42366623  -0.75719712
H    1.45458742   3.29255454   1.47370801
H    2.52552977   1.87547600   1.55592043
H    0.09451499   1.28151663   1.23800280
H    0.11187829   2.13976969  -0.30740069
H    1.80809443  -0.29001691   0.42586238
H    1.93432788   0.59555361  -1.09941325
H   -0.48909817   0.06636962  -1.55853995
H    0.54887783  -1.38223520  -1.44028330
H   -1.77981644  -2.75410618   1.79936413
H   -3.31110958  -2.81588570   0.89380763
H   -2.78941246  -1.31403989   1.69408060
