22
Energy: 1.544
C   -1.25258520  -2.30449735  -2.13488815
C   -0.05757608  -1.68074438  -1.48131294
N    0.93514002  -1.35481207  -2.17289528
H    1.72096488  -0.93745650  -1.68426052
O   -0.25040480  -1.56785272  -0.14023574
C    0.75437802  -0.97402592   0.66231330
C    0.71600544   0.55383651   0.61288481
C   -0.60794547   1.10329081   1.13945821
C   -0.61526480   2.63264074   1.14757931
O    0.36918534   3.17978597   1.99200214
H    0.21873772   2.85963276   2.88870838
H   -0.38649411   3.01659601   0.15083003
H   -1.61289176   2.99375059   1.43798824
H   -0.77548163   0.73609929   2.15653306
H   -1.42869771   0.74692724   0.51559693
H    1.53975158   0.94589851   1.21198825
H    0.85616231   0.89108905  -0.41642545
H    1.74582432  -1.34322037   0.36673913
H    0.54434391  -1.32560228   1.67633683
H   -1.44393686  -3.27900319  -1.69204440
H   -1.06482596  -2.40723542  -3.19761975
H   -2.12706151  -1.67925835  -1.96966386
