22
Energy: 1.754
C   -0.49615189   2.62545861  -0.41731545
C   -0.21577774   1.30921879  -1.07460414
N    0.65154035   1.22778030  -1.97589646
H    0.79996910   0.31557769  -2.39575700
O   -1.00094546   0.33270114  -0.54570032
C   -0.84565609  -1.00667151  -0.98188361
C    0.37626864  -1.70695433  -0.37806484
C    0.22376985  -2.04715727   1.10666396
C    0.05668925  -0.82468627   2.01797159
O    1.16063770   0.04805244   1.99302284
H    1.23177498   0.43077882   1.11125474
H   -0.86455815  -0.28816835   1.75793485
H   -0.02162099  -1.16116178   3.05486711
H    1.11293713  -2.59567813   1.42416046
H   -0.64425119  -2.69454129   1.24441251
H    0.53512341  -2.63459229  -0.93207831
H    1.26261779  -1.08352207  -0.52232090
H   -0.79269645  -1.03726994  -2.07888315
H   -1.76281991  -1.51136659  -0.66737895
H   -0.30455676   2.55395465   0.65149460
H   -1.54312875   2.88500972  -0.55564374
H    0.13725088   3.38679028  -0.85851947
