22
Energy: 1.994
C    2.39893647  -1.26190774  -2.43484123
C    1.79906212  -0.32468600  -1.43198799
N    2.46281710   0.64880478  -1.00315553
H    2.00662813   1.24457824  -0.31931258
O    0.53216931  -0.69504469  -1.11703562
C   -0.19073288   0.09250089  -0.18387225
C   -1.55133980  -0.56406579   0.02090721
C   -2.47341924   0.25046624   0.92683790
C   -1.96259008   0.38374132   2.36508465
O   -0.86430435   1.25500434   2.50175781
H   -1.13090271   2.13809623   2.22308572
H   -2.78762916   0.71772854   3.01108648
H   -1.61196039  -0.58400976   2.73055087
H   -3.44865531  -0.23811080   0.95853373
H   -2.61387477   1.24956720   0.50391836
H   -2.02101621  -0.68881293  -0.95689732
H   -1.39912816  -1.55716068   0.44638911
H   -0.31792151   1.11055088  -0.58095460
H    0.35367803   0.14950819   0.76624276
H    2.42144754  -2.26843867  -2.02400019
H    3.40466951  -0.93389490  -2.67171344
H    1.78778789  -1.27576145  -3.33412504
