22
Energy: 0.0
C   -0.31995433   1.78802901  -1.97255698
C    0.68029919   1.23125806  -1.00925382
N    1.86456802   1.03655031  -1.36235336
H    2.50198605   0.65927509  -0.66858967
O    0.09741425   1.00897139   0.20630355
C    0.84066233   0.39137011   1.24494483
C    0.98423858  -1.12359616   1.07222178
C   -0.30801295  -1.91638140   1.28884916
C   -1.35125806  -1.76539188   0.17169522
O   -2.17001353  -0.63444230   0.30347275
H   -1.60135843   0.15070622   0.29199251
H   -0.84388947  -1.76914668  -0.80624560
H   -2.03503228  -2.61790339   0.20154868
H   -0.76978404  -1.62275799   2.23382515
H   -0.04237006  -2.97273371   1.35863372
H    1.37202461  -1.33787836   0.07278662
H    1.72603232  -1.46200244   1.79897730
H    0.28600112   0.61842864   2.15928976
H    1.83225123   0.85724967   1.31814383
H   -0.74433021   2.70534504  -1.57076682
H   -1.12999430   1.07508135  -2.11441180
H    0.16918523   1.98679773  -2.91948987
