22
Energy: 1.544
C   -1.06543976  -3.03630526   1.05890508
C   -1.15568424  -1.92332017   0.06021661
N   -1.15369707  -2.18108079  -1.16600718
H   -1.21774128  -1.39347245  -1.80323868
O   -1.24127063  -0.72136779   0.68984954
C   -1.31052522   0.46631665  -0.07886117
C    0.06136117   0.92363615  -0.57589268
C    1.00489627   1.24376860   0.58141176
C    2.34922241   1.77101090   0.07740079
O    2.22928184   2.97561984  -0.64099611
H    1.82637218   3.63762031  -0.06772350
H    3.03604410   1.89844756   0.92715020
H    2.79503747   1.06064592  -0.62251116
H    1.17533181   0.34607813   1.17712483
H    0.54329009   1.99446307   1.23002869
H    0.50806431   0.14033132  -1.19210367
H   -0.06824006   1.81063803  -1.19850858
H   -1.73554501   1.21196480   0.59888788
H   -2.00037946   0.33364729  -0.92336008
H   -1.92685930  -3.00311552   1.72160192
H   -0.16861827  -2.91390643   1.66197067
H   -1.03323936  -3.98445424   0.53430630
