22
Energy: 1.4
C   -2.99340017  -0.62603309   0.66003597
C   -1.58832588  -1.14747583   0.64805572
N   -1.25430809  -2.05837164   1.44156184
H   -0.29263034  -2.38022560   1.39352888
O   -0.84793995  -0.50902992  -0.29462623
C    0.52234906  -0.84185426  -0.45347498
C    1.41140372  -0.13809573   0.57593487
C    1.31487563   1.38613180   0.48754753
C    1.97827480   1.97981322  -0.75744542
O    1.32322453   1.67056008  -1.96415115
H    0.39499808   1.91916374  -1.88175000
H    2.04272947   3.07227673  -0.63663866
H    2.99260422   1.58836442  -0.86888452
H    1.79777893   1.82187238   1.36416160
H    0.26061090   1.67626666   0.50576101
H    1.11261698  -0.44855521   1.58052987
H    2.44272068  -0.45525871   0.41269562
H    0.78181843  -0.51184994  -1.46108874
H    0.65958554  -1.92973048  -0.39394443
H   -3.43011529  -0.72994873  -0.33036860
H   -2.99059434   0.42984724   0.92175784
H   -3.57426149  -1.18424201   1.38545536
