19
Energy: 5.073
C    1.98518686   0.44114007   1.52838433
H    2.57331936   1.14163812   0.94159621
C    0.52622807   0.48782872   1.08746040
O    0.05856521   1.78378403   1.35882277
H   -0.84719113   1.88991812   1.04808715
H   -0.04508052  -0.26174000   1.65572387
C    0.40974765   0.15504558  -0.42530053
C    0.94456932  -1.22683312  -0.69657578
O    0.55624695  -2.22685491  -0.15883901
H    1.74085651  -1.26202870  -1.46020348
C   -1.04493448   0.20177576  -0.91112214
O   -1.34172310   0.87189113  -1.86546018
C   -2.02314655  -0.63557082  -0.14374312
H   -1.59482324  -1.61376677   0.06705818
H   -2.94068782  -0.73986688  -0.71753237
H   -2.26169695  -0.16114898   0.80721207
H    0.97413772   0.89900463  -0.99458773
H    2.38665378  -0.56136948   1.41095282
H    2.04800181   0.73369240   2.57273265
