19
Energy: 3.836
C   -0.25413602  -1.75222947   1.83843664
H   -0.39904554  -2.66583474   1.26507265
C    0.44794935  -0.69789048   0.98509288
O    1.69913837  -1.16029868   0.51295316
H    2.15253438  -1.61295974   1.23205344
H    0.58975259   0.21124161   1.59002846
C   -0.41624596  -0.35630277  -0.23688803
C   -1.62696180   0.45816939   0.13255312
O   -1.69172419   1.20507236   1.06925576
H   -2.46571781   0.34741496  -0.57721624
C    0.30236396   0.51204019  -1.29242062
O    0.07829870   0.34562580  -2.45943054
C    1.21437132   1.56225514  -0.74693602
H    0.71844143   2.11409465   0.04863939
H    1.51814724   2.23687460  -1.54305495
H    2.09457204   1.07399461  -0.33313520
H   -0.72794810  -1.27149338  -0.74640693
H   -1.22069142  -1.38217264   2.16872873
H    0.34359870  -1.98364003   2.71877023
