19
Energy: 4.266
C    0.49577757  -1.68023672   1.07714176
H    0.26096427  -2.69698212   1.38201835
C   -0.60788894  -1.17392217   0.15080291
O   -1.87842454  -1.27087869   0.74229938
H   -1.84011083  -0.80722735   1.59064858
H   -0.65032556  -1.81332722  -0.73864150
C   -0.36001341   0.28251007  -0.33042526
C   -0.31929398   1.27267495   0.80568114
O   -0.63588202   1.03810358   1.93789728
H    0.00944167   2.28607582   0.51022058
C    0.84187255   0.41419176  -1.26403221
O    1.55311199  -0.51848742  -1.52266758
C    1.06344085   1.78626501  -1.84641949
H    0.13129817   2.31572355  -2.01872096
H    1.61788981   1.69405685  -2.77725713
H    1.67442494   2.36524163  -1.15423471
H   -1.23755571   0.58005165  -0.92363889
H    0.56900303  -1.05972809   1.96735419
H    1.44884574  -1.68118945   0.55765154
