19
Energy: 5.5
C    0.30100190  -1.22748952   2.10125272
H    0.71981257  -2.20690688   1.88770589
C   -0.53248649  -0.72744360   0.92684139
O   -1.26262446   0.42414968   1.27094812
H   -0.69242211   1.01693837   1.77658552
H   -1.29275531  -1.46569672   0.64667740
C    0.37861724  -0.50602280  -0.32519422
C   -0.33767647  -0.81070236  -1.61594049
O   -1.43648039  -1.27087365  -1.71905895
H    0.28182636  -0.60097029  -2.51183151
C    0.96015110   0.90526441  -0.27236227
O    1.96310464   1.14240694   0.35103387
C    0.14157146   1.94890042  -0.96924875
H    0.52771235   2.94234163  -0.75402319
H   -0.89558051   1.86465526  -0.64672410
H    0.16918770   1.77742489  -2.04408546
H    1.21746186  -1.20911542  -0.26125087
H   -0.32607704  -1.30431384   2.98678246
H    1.11571102  -0.53281671   2.30412424
