19
Energy: 5.551
C    0.13875424  -1.48088250   1.95522506
H   -0.86060931  -1.35686979   2.37318401
C    0.14662965  -1.11675868   0.47394671
O   -0.60589619  -2.04742668  -0.27107828
H   -1.41884731  -2.24044090   0.21237490
H    1.16532399  -1.17373643   0.07790970
C   -0.38262603   0.32739987   0.24497637
C    0.40067643   1.37480311   0.99883225
O    1.41235162   1.20605048   1.61238079
H   -0.05549628   2.38046100   0.90945616
C   -0.28158218   0.65464031  -1.25572048
O    0.69930872   1.16157250  -1.72830897
C   -1.47320149   0.23623107  -2.06386744
H   -1.54462008  -0.85007357  -2.01033259
H   -1.34621841   0.54185366  -3.09870515
H   -2.38785676   0.66303306  -1.65940991
H   -1.43212711   0.38354057   0.55321754
H    0.83295986  -0.85628961   2.50663491
H    0.44052208  -2.51985213   2.06768319
