19
Energy: 3.752
C   -2.15136502  -0.44469285  -0.23529726
H   -1.92834926  -1.03493714  -1.12111375
C   -1.07638461  -0.63591327   0.83245225
O   -0.95780444  -1.98929564   1.23154813
H   -1.83209320  -2.32057504   1.46279698
H   -1.33373411  -0.01328805   1.70484389
C    0.32180460  -0.20622184   0.34870901
C    0.72446836  -0.98175037  -0.88717051
O    1.50890785  -0.64018837  -1.72471493
H    0.22927943  -1.96639940  -0.93014591
C    0.45929015   1.30576980   0.19138897
O   -0.49205368   2.04183987   0.25793687
C    1.85708616   1.77726085  -0.06065778
H    2.52380032   1.44092388   0.72977008
H    1.88024962   2.86138191  -0.12946508
H    2.20433503   1.33821738  -0.99623375
H    1.03888684  -0.53516308   1.11270353
H   -2.20628818   0.60395037  -0.51015420
H   -3.12102150  -0.75156255   0.15368925
