19
Energy: 4.03
C    0.81659213   1.55840026   0.81364331
H    1.24306017   1.82664045  -0.14939736
C    0.83956915   0.04264878   1.00675120
O    0.46813178  -0.32598436   2.30339982
H   -0.40478284   0.05330420   2.48106471
H    1.86385617  -0.32524829   0.87750324
C   -0.05258924  -0.68591432  -0.05026621
C   -1.51983166  -0.45897730   0.16367055
O   -2.01150820   0.22283987   1.02204948
H   -2.15907224  -1.02261953  -0.54393022
C    0.44458540  -0.32712583  -1.45167873
O    1.51561096  -0.70781733  -1.84064861
C   -0.47078133   0.53694251  -2.27323802
H   -0.91982784   1.31967358  -1.66750080
H   -1.27128883  -0.08459283  -2.67350905
H    0.07621307   0.97009399  -3.10731249
H    0.11757685  -1.76284754   0.07990083
H    1.40941280   2.02262949   1.59821125
H   -0.20014755   1.93985200   0.87974649
