19
Energy: 4.653
C   -1.02677246  -0.25644708   2.29041092
H   -0.16253832  -0.90894200   2.40200145
C   -0.88346357   0.61507364   1.04697034
O    0.10352550   1.59978564   1.20743900
H    0.86593986   1.20997890   1.65271306
H   -1.81291369   1.17395481   0.87774588
C   -0.62571412  -0.26803516  -0.21822888
C   -0.96809414   0.48640841  -1.47714018
O   -0.36501579   0.48173903  -2.51010544
H   -1.91399653   1.05547690  -1.37260993
C    0.77822623  -0.86427334  -0.15901731
O    0.97075516  -1.91503294   0.40299008
C    1.86703787  -0.05018558  -0.78146042
H    2.84038969  -0.41970468  -0.46825880
H    1.75094599   1.00426364  -0.54036107
H    1.77942650  -0.14350409  -1.86383246
H   -1.34499711  -1.09539242  -0.15943308
H   -1.91742261  -0.87450832   2.22239300
H   -1.10973963   0.37694102   3.17101568
