19
Energy: 2.827
C   -1.13743979  -1.37653759  -1.71407398
H   -2.04534970  -1.49773334  -1.12987931
C    0.04405848  -1.04414891  -0.80882759
O    1.25435528  -1.03672276  -1.51916791
H    1.13237123  -0.53700600  -2.33630867
H    0.16284197  -1.81278018  -0.03778979
C   -0.17045949   0.32930328  -0.10447800
C   -1.51684391   0.38691126   0.55977050
O   -2.37576577   1.17554685   0.28318122
H   -1.63954307  -0.36172813   1.36196456
C    0.91116471   0.45883830   0.97054715
O    0.86934546  -0.18517556   1.98414207
C    2.02296814   1.39949763   0.61485798
H    2.73187325   1.47118260   1.43512932
H    1.62685250   2.38450014   0.37835772
H    2.52725282   1.00808941  -0.26814371
H   -0.08919683   1.12971247  -0.84594659
H   -0.93646439  -2.30269927  -2.24823146
H   -1.29797791  -0.57933038  -2.43901114
