19
Energy: 3.212
C   -1.56279584   0.11927145   2.00085185
H   -2.27916593   0.83370500   2.40323170
C   -0.85462359   0.70876909   0.78400215
O   -0.10751971   1.85975618   1.12156810
H   -0.69064127   2.49689265   1.54802511
H   -1.59195749   0.95578126   0.00312635
C    0.15856622  -0.28728501   0.19205483
C   -0.49693905  -1.56945097  -0.23519995
O   -0.09363310  -2.66393952   0.03761588
H   -1.38461430  -1.41453716  -0.87518467
C    0.74755104   0.35730082  -1.07321449
O    0.05001810   0.65305510  -2.00473276
C    2.22485470   0.58648626  -1.00921723
H    2.73644682  -0.35252497  -0.80828705
H    2.42884567   1.27025275  -0.18690805
H    2.58296274   1.01440143  -1.94173246
H    0.94491435  -0.48571679   0.92262273
H   -0.83604130  -0.11872079   2.77440003
H   -2.09298948  -0.78868396   1.72643284
