19
Energy: 4.342
C    1.01448874   0.66249771   2.23185246
H    1.45234018  -0.28259907   2.54401022
C    0.83873696   0.67736580   0.71803319
O    2.11001621   0.52083530   0.13740079
H    2.03721372   0.70792945  -0.80721968
H    0.39094028   1.63274159   0.40954224
C   -0.12334456  -0.45689556   0.28158626
C   -1.54774954  -0.16022786   0.68598693
O   -1.99292671   0.92395728   0.92095233
H   -2.18766869  -1.06443941   0.73308842
C   -0.13432039  -0.62023481  -1.24298909
O    0.27776500   0.23990668  -1.97500867
C   -0.67572444  -1.93267786  -1.73095644
H   -0.74405267  -1.92294709  -2.81591690
H   -1.65606473  -2.12745940  -1.30162436
H   -0.00651545  -2.73488853  -1.42418324
H    0.18051064  -1.41010733   0.72315640
H    0.05869350   0.80581491   2.72680751
H    1.68943597   1.46295147   2.51961117
