19
Energy: 2.613
C    1.83002126   0.06248581  -0.90022743
H    1.42341375   0.05457928  -1.90986629
C    0.93252561   0.87564496   0.03082215
O    0.72135167   2.17593155  -0.42396209
H    0.19123527   2.14223324  -1.23531771
H    1.41985277   0.98646936   1.00728493
C   -0.45311152   0.16311565   0.25690507
C   -1.02567205  -0.11196590  -1.10776980
O   -1.36721464   0.75088977  -1.87135486
H   -1.07266038  -1.18186826  -1.37420775
C   -0.27930501  -1.09649802   1.07856054
O    0.02185666  -2.14911126   0.57462498
C   -0.50167545  -0.91611955   2.55370157
H    0.05284371  -0.05387983   2.91658420
H   -0.19904816  -1.80925374   3.09343743
H   -1.56038469  -0.73426200   2.73244203
H   -1.07755602   0.89457301   0.77939865
H    1.91709902  -0.96164461  -0.54868920
H    2.81908685   0.51264999  -0.93174531
