19
Energy: 4.796
C    0.44833414  -0.71027574   2.29781650
H   -0.44036414  -0.11939520   2.50468084
C    0.50752170  -1.08726381   0.81996718
O   -0.62273366  -1.83611316   0.42075993
H   -0.74940390  -2.55853992   1.04489616
H    1.41822648  -1.68571482   0.64036024
C    0.60200301   0.16799395  -0.07969236
C    0.79369132  -0.23205452  -1.51718406
O    1.54851767   0.30608147  -2.27713191
H    0.16793263  -1.08724084  -1.82739404
C   -0.65301380   1.03873854   0.09488431
O   -0.66460071   1.93379592   0.89627670
C   -1.82064451   0.67688483  -0.76816068
H   -2.04913680  -0.37856046  -0.63740401
H   -1.56110647   0.84120008  -1.81285001
H   -2.68138409   1.28744911  -0.50650641
H    1.45664522   0.76750633   0.24927895
H    1.32266987  -0.12753617   2.57179505
H    0.42504286  -1.60893541   2.91259759
