19
Energy: 4.989
C    2.16920740  -1.10443681   0.48077722
H    2.72211082  -0.18487554   0.64279510
C    0.86725733  -0.81056439  -0.25845186
O    0.12018404  -1.99529312  -0.47643368
H    0.67046602  -2.61913878  -0.96171771
H    1.08791450  -0.32095506  -1.21861250
C   -0.05091035   0.12555718   0.54891149
C    0.53602763   1.49582358   0.75338447
O    1.53966367   1.91827146   0.25806505
H   -0.08190971   2.12445649   1.42491504
C   -1.36508624   0.26264222  -0.24715614
O   -1.41712337   0.87707758  -1.27551022
C   -2.52167473  -0.47482865   0.35548096
H   -2.71410749  -0.11585256   1.36424744
H   -2.25423658  -1.52864298   0.40992258
H   -3.40962437  -0.34983434  -0.25819165
H   -0.26752627  -0.32419223   1.52101342
H    2.78681526  -1.77903126  -0.10963122
H    1.95887769  -1.57438976   1.43950090
