19
Energy: 4.372
C   -1.28870348   0.91844502  -1.40181526
H   -1.03227827   1.85962954  -0.92553059
C   -1.26669477  -0.21173133  -0.37352430
O   -1.63598243  -1.44179504  -0.92539905
H   -0.96905337  -1.70336910  -1.57736592
H   -2.00851886  -0.00518447   0.40620120
C    0.12793709  -0.34542629   0.32597367
C    1.17191626  -0.43396939  -0.75926139
O    1.24245480  -1.34557168  -1.53708449
H    1.85594828   0.43153763  -0.82786314
C    0.42849051   0.76847572   1.31345435
O   -0.12378710   1.83672891   1.29255836
C    1.49042312   0.40920424   2.31843273
H    2.33773559  -0.06498020   1.82833770
H    1.07439118  -0.30047386   3.03192721
H    1.81488461   1.29613433   2.85600467
H    0.11064053  -1.30641344   0.85303186
H   -2.28835719   0.99611456  -1.82218530
H   -0.58880943   0.71932370  -2.21195298
