19
Energy: 4.251
C   -0.08595750   1.90633725  -0.82805254
H    0.22505791   1.45136592  -1.76285996
C    0.53715137   1.16466756   0.35160293
O    0.21804813   1.76727327   1.57956816
H   -0.74638054   1.82829313   1.63083959
H    1.62984233   1.22113571   0.27655905
C    0.14845597  -0.34134739   0.39656987
C   -1.34581392  -0.54542858   0.47023531
O   -2.14267927   0.29370319   0.78039891
H   -1.67096390  -1.57751461   0.23759660
C    0.75550805  -1.18000726  -0.72475529
O    1.05300440  -0.72271411  -1.79493464
C    0.97048894  -2.62565755  -0.36426036
H    1.16387392  -3.20867975  -1.26092440
H    0.11760612  -3.03422698   0.17163449
H    1.84080576  -2.69176536   0.28752987
H    0.52524092  -0.74151459   1.34854714
H    0.24609539   2.94146136  -0.80886136
H   -1.17150695   1.89029481  -0.76355196
