19
Energy: 2.033
C    1.51606806   1.94407422  -0.72264491
H    1.17719106   2.62796879   0.05068946
C    0.52775119   0.78987951  -0.87790808
O    0.86658717  -0.04275077  -1.95833748
H    1.77428078  -0.35015857  -1.84746728
H   -0.46217234   1.18798159  -1.11981717
C    0.44008727   0.00217759   0.45175574
C   -0.31857773   0.77863128   1.49435301
O   -1.32475242   1.39694348   1.28244742
H    0.11051537   0.71029139   2.50967869
C   -0.32295147  -1.32950946   0.29583091
O    0.10773921  -2.32791260   0.80703341
C   -1.58418645  -1.25035865  -0.49652077
H   -2.15336287  -2.16895847  -0.38210443
H   -1.32398256  -1.11609781  -1.54580353
H   -2.17461021  -0.39310458  -0.17979410
H    1.44084537  -0.23914105   0.82302575
H    1.59312462   2.48616242  -1.66204555
H    2.50401091   1.57087859  -0.45447848
