19
Energy: 4.532
C   -0.51531765   1.94583087  -0.88770804
H    0.33577261   2.28668454  -0.30655813
C   -1.24233419   0.83817330  -0.13332760
O   -2.43842404   0.45249471  -0.77204539
H   -2.30588719   0.45664125  -1.72666105
H   -1.54870628   1.21378007   0.84967754
C   -0.33174120  -0.39649619   0.11311380
C    0.23753512  -0.93864684  -1.17520868
O    1.28649468  -1.49538619  -1.32526404
H   -0.45089587  -0.80140241  -2.03186794
C    0.73933601  -0.12958970   1.17176425
O    0.96730706   0.97981656   1.57923888
C    1.47129536  -1.35044264   1.63666626
H    2.01658891  -1.76673070   0.78960240
H    0.77461397  -2.10708580   1.98935115
H    2.16839580  -1.08940846   2.42815723
H   -0.98208911  -1.19859492   0.48808423
H   -1.19047157   2.78450336  -1.04258256
H   -0.16208019   1.59432618  -1.85665060
