19
Energy: 3.975
C    1.24197062  -0.17858845   1.92990576
H    0.60219506   0.41905007   2.57713510
C    0.41824658  -1.04704727   0.98419056
O   -0.50031478  -1.85877330   1.67746565
H   -1.03288105  -1.30743222   2.26304013
H    1.08763053  -1.75731976   0.48414678
C   -0.32143558  -0.26583098  -0.13198321
C   -1.05913691   0.96887876   0.31151874
O   -2.06736422   1.36517564  -0.20550145
H   -0.57771031   1.52975966   1.12913512
C    0.62632377   0.24202906  -1.23000304
O    1.75551200   0.57825156  -0.99723694
C   -0.01306987   0.29515492  -2.58324114
H   -0.98987790   0.77022548  -2.50917587
H   -0.15928823  -0.71896148  -2.95172075
H    0.61989644   0.83924584  -3.27936943
H   -1.04542090  -0.94355785  -0.59607200
H    1.89756610   0.47336718   1.36114065
H    1.84968169  -0.82211228   2.56143914
