19
Energy: 4.325
C   -0.32765945  -0.15507459  -2.55468557
H   -1.28083176  -0.67529223  -2.60252301
C   -0.19078004   0.57381559  -1.22284206
O   -1.16024169   1.57832998  -1.18405007
H   -1.02162473   2.09349974  -0.37383426
H    0.81929423   1.00710933  -1.14431068
C   -0.36719864  -0.40254871  -0.00996981
C    0.54585396  -1.58356027  -0.20073680
O    1.69692975  -1.62763183   0.13293217
H    0.07518117  -2.43377810  -0.72901773
C   -0.12736244   0.34965653   1.30064784
O   -0.16679767   1.55375497   1.35877195
C    0.13886849  -0.51601745   2.49341886
H    0.03215158   0.06288675   3.40706574
H    1.16484950  -0.87723960   2.42316451
H   -0.52085183  -1.37992021   2.50847763
H   -1.41099015  -0.73576516  -0.01076169
H    0.48497963  -0.86257907  -2.69370363
H   -0.30175299   0.57999645  -3.35438766
