19
Energy: 4.07
C    1.74072197  -0.52969695   1.68187105
H    1.06143848   0.01263943   2.33746013
C    1.03563754  -0.91839268   0.38837062
O    0.06815033  -1.91823850   0.59078275
H   -0.40616681  -1.73007042   1.41014933
H    1.75675974  -1.35936314  -0.31029066
C    0.41807424   0.34239687  -0.30231916
C    0.13160950   0.03944986  -1.74585780
O    0.37209503   0.77939467  -2.65794251
H   -0.31459509  -0.95844876  -1.91192133
C   -0.83233926   0.75841090   0.47384474
O   -0.74118084   1.38676857   1.49642968
C   -2.13939768   0.28687875  -0.09092724
H   -2.28235230   0.71781177  -1.08063579
H   -2.95807256   0.58780305   0.55876800
H   -2.12517612  -0.79691222  -0.19563287
H    1.13805269   1.16371636  -0.23650154
H    2.59759866   0.10350272   1.47140648
H    2.08734348  -1.42653672   2.19084905
