19
Energy: 0.0
C    2.11893513  -0.04473965  -1.33796681
H    2.99516042   0.56365387  -1.54555676
C    1.50280068   0.39227708  -0.00688520
O    1.19345897   1.75694810   0.01106957
H    0.51525863   1.91148559  -0.66606861
H    2.24121881   0.25305848   0.79317619
C    0.26151975  -0.47202221   0.32393567
C   -0.36409421  -0.04606058   1.63475714
O   -1.09779468  -0.73474060   2.28508335
H   -0.10363761   0.98498804   1.92466774
C   -0.86488983  -0.30406188  -0.69771903
O   -1.00228833   0.70871232  -1.33786865
C   -1.78223615  -1.48242597  -0.77885919
H   -2.65472089  -1.24303051  -1.38105003
H   -2.08515115  -1.76957969   0.22752336
H   -1.25714863  -2.32547404  -1.22483063
H    0.52381900  -1.53072906   0.38613933
H    1.40656328   0.08932900  -2.14920875
H    2.41846128  -1.08863110  -1.29547195
