19
Energy: 5.262
C   -0.23363453   0.21467657  -2.42108497
H   -0.03961775  -0.32067972  -3.34946823
C   -0.33845845  -0.76863309  -1.25835198
O    0.87871580  -1.44719794  -1.02938993
H    1.21731680  -1.77396983  -1.87014972
H   -1.12557199  -1.51072208  -1.48436826
C   -0.74053310  -0.05791506   0.05577873
C   -0.81181288  -1.07774510   1.16755329
O   -0.38150945  -0.96666512   2.27666383
H   -1.35962071  -1.98921900   0.85530322
C    0.14917862   1.15244375   0.35052759
O   -0.25499841   2.26732641   0.13382724
C    1.50130140   0.84346178   0.89978369
H    2.13308809   1.72732039   0.87590283
H    1.95019310   0.01995040   0.35021060
H    1.37567122   0.51503238   1.93130507
H   -1.76320080   0.31611367  -0.08678380
H    0.57483231   0.92087945  -2.24780071
H   -1.15979671   0.77141441  -2.52847315
