19
Energy: 3.601
C   -0.84313083  -0.06063314   2.40693242
H   -0.49865199  -0.47919606   3.34959088
C    0.12512769  -0.44107057   1.28882084
O    0.30264873  -1.83230190   1.20062254
H   -0.55616151  -2.25296456   1.07252051
H    1.12162459  -0.04879712   1.52006285
C   -0.36677652   0.15700360  -0.05158052
C   -0.19657707   1.65167527  -0.06088732
O   -1.05164517   2.44095624  -0.33727603
H    0.82424910   1.98177149   0.21808183
C    0.39074256  -0.41826694  -1.25918648
O   -0.21380532  -0.81079264  -2.21921366
C    1.88279476  -0.46944724  -1.13571554
H    2.31905244  -0.73861901  -2.09413057
H    2.13870841  -1.23266245  -0.40184758
H    2.28384548   0.48241371  -0.79742277
H   -1.42816855  -0.07084649  -0.20342092
H   -1.83860867  -0.44884588   2.19739057
H   -0.90605185   1.02021549   2.50040990
