19
Energy: 2.213
C    1.84403248   1.57337429  -1.02892454
H    1.68083439   2.35391252  -0.29079094
C    0.61953113   0.67206147  -1.13863053
O    0.90689135  -0.32781497  -2.08320847
H    0.09302946  -0.81397041  -2.26844957
H   -0.24809771   1.26387842  -1.47297978
C    0.28216289   0.06347145   0.24096483
C   -0.24521083   1.09501184   1.20210390
O   -0.22794022   0.98541717   2.39563400
H   -0.69949064   1.97276472   0.70815358
C   -0.81638901  -1.00510176   0.13824893
O   -1.53677797  -1.07170051  -0.82415643
C   -0.88449048  -1.92310431   1.31588472
H   -1.82005616  -2.47631535   1.30953287
H   -0.78046730  -1.35774222   2.24012940
H   -0.05738814  -2.62983619   1.25940025
H    1.16356201  -0.41409597   0.67896319
H    2.04831492   2.02604936  -1.99473344
H    2.70774971   0.97974708  -0.74111639
