19
Energy: 4.587
C   -1.08498817  -1.25597170  -1.87624365
H   -1.25714782  -2.14006706  -1.26941069
C   -0.04275982  -0.34650165  -1.23247276
O    0.21239627   0.69747295  -2.11686055
H    0.71291457   1.39335615  -1.65718097
H    0.87423836  -0.92791729  -1.03283168
C   -0.55869272   0.20455879   0.14884906
C   -1.07229818  -0.92945780   0.98460831
O   -0.41075715  -1.84318284   1.39659444
H   -2.15929314  -0.88353163   1.18879337
C    0.61022544   0.98838805   0.74728136
O    1.04869759   1.94332529   0.14951321
C    1.18229434   0.50906197   2.04118732
H    1.50072885  -0.52677684   1.94053839
H    0.42015560   0.54063097   2.81818718
H    2.02547711   1.13365344   2.32505391
H   -1.36181535   0.91250563  -0.07861592
H   -0.72120949  -1.55820775  -2.85436286
H   -2.01799499  -0.71492414  -2.01094212
