19
Energy: 5.187
C    1.85040596   1.13943023   0.32351165
H    1.41297066   1.94501647  -0.25944228
C    0.79317802   0.46769598   1.19315977
O    0.30975510   1.43383630   2.10427782
H   -0.20117118   1.00508744   2.79867724
H    1.26443750  -0.36567798   1.73559506
C   -0.37391264  -0.11137616   0.35449899
C   -1.03959409   0.99402495  -0.43995548
O   -1.69405417   0.86800820  -1.43447628
H   -0.88678193   1.98131627   0.02951623
C    0.03713015  -1.31108382  -0.49981045
O    1.18730681  -1.64691316  -0.61553462
C   -1.10358558  -2.01351317  -1.16837526
H   -1.83433906  -2.34620290  -0.43474095
H   -0.73709112  -2.86399563  -1.73654629
H   -1.60067394  -1.30779958  -1.83439421
H   -1.15688201  -0.46156068   1.04257497
H    2.29533861   0.40833546  -0.34323137
H    2.62139011   1.55755855   0.96450735
