19
Energy: 4.328
C    1.80837667   1.54253357   0.89402483
H    2.63772209   1.29036927   0.23755711
C    0.48749430   1.18953404   0.21981008
O    0.39758626   1.94515684  -0.96173373
H   -0.49568218   1.84423129  -1.31656222
H   -0.34576227   1.43098416   0.89570146
C    0.42710372  -0.32961004  -0.08186425
C    0.35838158  -1.15183268   1.18215929
O   -0.06853613  -0.77304455   2.23318520
H    0.72790736  -2.18882690   1.05515160
C   -0.81781934  -0.68800664  -0.90392593
O   -1.68298192   0.11627716  -1.12808764
C   -0.87102585  -2.10895400  -1.38758879
H   -1.09811840  -2.75875162  -0.54269003
H    0.08038420  -2.41951798  -1.81082966
H   -1.65931334  -2.21452188  -2.12898051
H    1.30496388  -0.63125500  -0.66082352
H    1.91052673   1.01128673   1.83537111
H    1.83532445   2.61157574   1.08253203
