19
Energy: 3.973
C    1.70034477   0.61934378  -1.39586500
H    2.31601598   1.43422920  -1.76918848
C    0.46091784   1.20152895  -0.72484038
O   -0.35407375   1.90073537  -1.63321050
H   -0.56057725   1.32879000  -2.38220601
H    0.77337124   1.96116745   0.00178283
C   -0.39935746   0.16402705   0.04835883
C   -0.64330371  -1.13354627  -0.67452007
O   -1.69940150  -1.70321991  -0.68810244
H    0.24913053  -1.56396020  -1.15804934
C    0.25247761  -0.26344927   1.36935571
O    1.43494437  -0.45078760   1.47042216
C   -0.73011992  -0.44862212   2.48563139
H   -1.13964995   0.51905926   2.77059473
H   -0.24363814  -0.89968205   3.34657144
H   -1.55318868  -1.07559098   2.14734609
H   -1.36853287   0.62526488   0.26267557
H    1.42958852  -0.01333004  -2.23954371
H    2.27781887   0.04468837  -0.67826119
