19
Energy: 2.429
C    0.60822106   2.28891682  -0.00131981
H   -0.25954236   2.85354650  -0.32904325
C    0.68107081   0.95159429  -0.73062473
O    1.83453693   0.27982459  -0.31017346
H    1.86550127  -0.57512384  -0.76933910
H    0.73973925   1.13981129  -1.81728744
C   -0.62352280   0.12532374  -0.50977014
C   -0.56720055  -1.20118217  -1.20430792
O    0.43904448  -1.80974917  -1.46320977
H   -1.55958359  -1.61261980  -1.46252851
C   -0.91123600  -0.09089581   0.99062926
O   -1.88154703   0.40701674   1.49455194
C    0.08906144  -0.92238168   1.72227315
H    0.10997961  -1.92806510   1.30532020
H   -0.16414225  -0.96774815   2.77822486
H    1.08272149  -0.49437764   1.58660846
H   -1.46767128   0.69839956  -0.90493937
H    1.50819509   2.85932504  -0.21307752
H    0.54476004   2.13111689   1.07186002
