25
Energy: 0.743
C   -0.20548602   0.46584924  -3.21635366
H   -1.10436254   0.96376210  -2.86153181
C    0.74747424   0.16893642  -2.06448337
C    0.11497770  -0.73687867  -1.00309988
C    1.15211802  -1.22355496   0.01944708
C    1.14242567  -0.15819473   1.10746795
H    1.70109862   0.71978859   0.77965443
H    1.56962433  -0.51159159   2.04619652
C   -0.34267106   0.22923773   1.24732433
C   -1.03931792  -0.64023523   2.29716405
H   -0.58162437  -0.49853164   3.27609281
H   -0.96554660  -1.69003000   2.02846247
H   -2.08999482  -0.36602232   2.36466725
C   -0.93625829   0.00579162  -0.15932707
H   -1.86628248  -0.55659179  -0.09393900
H   -1.16413734   0.98303161  -0.58144244
O   -0.50295123   1.60076243   1.57002263
H   -0.17794955   1.74680562   2.46496139
H    0.84130114  -2.18206536   0.43874328
H    2.13883389  -1.35328175  -0.42364986
H   -0.33696801  -1.59001125  -1.51739266
H    1.63741494  -0.32246201  -2.46585613
H    1.06225146   1.10496824  -1.60060543
H   -0.50076384  -0.45683278  -3.71226187
H    0.27445365   1.11009015  -3.94962314
