25
Energy: 1.565
C    2.08545929   1.10807704   1.42477582
H    3.04746790   1.36028397   1.86536241
C    1.87929994  -0.40292219   1.48140005
C    0.61636609  -0.93065713   0.78834536
C   -0.69796877  -0.37869853   1.36861203
C   -1.66217294  -0.35822860   0.18588592
H   -2.49663549   0.32717438   0.32988875
H   -2.05736906  -1.35755648   0.00228445
C   -0.78487799   0.06995478  -1.00382614
C   -1.38767005  -0.30872901  -2.35210979
H   -2.33122711   0.21362640  -2.48551365
H   -1.55868687  -1.37974860  -2.40976234
H   -0.71342108  -0.00727634  -3.14926785
C    0.55900705  -0.63754893  -0.72614366
H    0.61197520  -1.56481460  -1.29527937
H    1.38251791  -0.00543999  -1.05582436
O   -0.62150840   1.47729348  -1.02874226
H   -0.24253632   1.74631839  -0.18473920
H   -1.06535074  -0.99344081   2.18949935
H   -0.55935259   0.63240560   1.75334897
H    0.61613923  -2.01675141   0.92744819
H    2.74251932  -0.88993574   1.02105388
H    1.84937448  -0.71313877   2.52901206
H    1.31889886   1.63753687   1.98628304
H    2.08269901   1.47235837   0.40020332
