25
Energy: 0.102
C    3.16650368  -0.74207123   0.77353300
H    4.17480238  -0.95490107   0.42566308
C    2.42134349   0.11269875  -0.24487883
C    1.01166039   0.47501572   0.21543946
C    0.28180302   1.40791334  -0.75544900
C   -1.17724638   1.27772995  -0.33189115
H   -1.87900319   1.58585998  -1.10668738
H   -1.36012461   1.88375616   0.55566929
C   -1.36184556  -0.21764530   0.01333248
C   -2.32460927  -0.42058125   1.17953059
H   -2.46034540  -1.48425618   1.35603362
H   -3.29101627   0.01206920   0.93424738
H   -1.93693812   0.04896780   2.07900900
C    0.06720288  -0.72923024   0.33197157
H    0.11020336  -1.18684847   1.31837318
H    0.33856502  -1.49303721  -0.39997609
O   -1.92401402  -0.92434887  -1.07985534
H   -1.37435404  -0.77050424  -1.85588671
H    0.64359489   2.43376262  -0.70019208
H    0.41895985   1.05456110  -1.78059219
H    1.07755179   0.97198521   1.18897764
H    2.98142666   1.03517269  -0.41776925
H    2.36564922  -0.42230397  -1.19645217
H    2.65289171  -1.68668352   0.93297883
H    3.23551547  -0.22368224   1.72740578
