25
Energy: 0.86
C   -1.88274427   2.61409478  -0.50669433
H   -1.40935060   3.07410810   0.35711572
C   -1.51645976   1.13926020  -0.62445174
C   -0.02739722   0.90339350  -0.89078698
C    0.86792000   1.26618201   0.29749705
C    0.75270006   0.06959649   1.23965174
H   -0.11804005   0.18395517   1.88699075
H    1.63359696  -0.04003304   1.87209638
C    0.53783975  -1.16344959   0.32746141
C    1.75901164  -2.08646139   0.33702601
H    2.64894748  -1.53979225   0.03716940
H    1.60232245  -2.91388102  -0.35177878
H    1.92095706  -2.49309503   1.33522040
C    0.27152987  -0.58830727  -1.07844142
H    1.15490133  -0.71968391  -1.70280022
H   -0.55990257  -1.12188444  -1.53482285
O   -0.61846561  -1.89210350   0.70958348
H   -0.45644068  -2.30194134   1.56619054
H    1.89876332   1.36735574  -0.04764772
H    0.58042454   2.19837457   0.77913984
H    0.25732249   1.47205332  -1.78117698
H   -1.81178700   0.60802755   0.28008948
H   -2.08079945   0.70648885  -1.45383864
H   -2.95928072   2.72609985  -0.39895318
H   -1.56952689   3.15650090  -1.39678221
