25
Energy: 0.995
C   -0.91221892   0.09693453  -3.32548188
H   -1.60671673   0.92935256  -3.41865755
C    0.07159635   0.35015974  -2.18873800
C   -0.61563775   0.53900431  -0.83225173
C   -1.16438461  -0.78119925  -0.26693695
C   -0.06394119  -1.30069700   0.64927665
H    0.73183699  -1.76098505   0.06117370
H   -0.42854917  -2.03048743   1.37256279
C    0.50152198  -0.03624534   1.32064741
C   -0.29432417   0.32614256   2.57665539
H   -0.24554384  -0.48165235   3.30661930
H   -1.33561702   0.50711396   2.32759736
H    0.12117931   1.22473144   3.02786096
C    0.37590398   1.04703030   0.23321238
H    0.05476548   1.99234397   0.66719202
H    1.36588348   1.19599792  -0.19668395
O    1.87609032  -0.17344190   1.63961365
H    1.96413693  -0.81961010   2.34859679
H   -2.07096037  -0.59473575   0.31078714
H   -1.40972861  -1.49511167  -1.05100672
H   -1.42893744   1.25802779  -0.96648419
H    0.77883352  -0.47836656  -2.12176761
H    0.64047597   1.25370998  -2.41957058
H   -1.48914691  -0.80900986  -3.15676239
H   -0.37987270  -0.01161291  -4.26773028
