25
Energy: 0.384
C   -2.94777193   0.04805784   0.98360822
H   -3.84297865   0.43225369   0.49991111
C   -1.94210614  -0.42335344  -0.06045926
C   -0.66331071  -0.98539126   0.56736874
C    0.20680203  -1.71263374  -0.46197754
C    0.93419058  -0.59270729  -1.20429115
H    0.33638712  -0.23128925  -2.03996146
H    1.90027764  -0.91294374  -1.59021017
C    1.07953725   0.56640219  -0.19648857
C    2.54109400   0.85006987   0.15833556
H    2.60336440   1.60966991   0.93741378
H    3.06972791   1.21090406  -0.72164177
H    3.02717342  -0.05379072   0.51520212
C    0.27568553   0.12399138   1.04928850
H    0.95760925  -0.26904778   1.80441009
H   -0.26485373   0.96494766   1.48236575
O    0.50273009   1.71229626  -0.80525739
H    0.62640296   2.46881961  -0.22178475
H    0.92940172  -2.34636057   0.05618797
H   -0.37666358  -2.34035536  -1.13380571
H   -0.93952712  -1.65381355   1.38859669
H   -2.40943772  -1.20181735  -0.66822286
H   -1.68118284   0.40615246  -0.71788998
H   -2.53165330   0.84032495   1.60151743
H   -3.23672104  -0.77458943   1.63540612
