25
Energy: 0.951
C    0.13878109  -1.65627407   2.92630165
H    1.11806116  -2.12217207   3.01745171
C    0.22189007  -0.41110291   2.05055007
C    0.77280537  -0.69930336   0.65052341
C   -0.22148318  -1.45922182  -0.23468266
C   -1.11306455  -0.37038733  -0.82011516
H   -1.86278677  -0.06431056  -0.08890255
H   -1.62776709  -0.69488577  -1.72466643
C   -0.16609938   0.82051467  -1.08221992
C    0.27661097   0.85519724  -2.54756550
H    0.75578409  -0.08153521  -2.81845606
H    0.97934387   1.67102881  -2.70315197
H   -0.58128657   1.00874574  -3.20210307
C    1.03239713   0.59657575  -0.13519178
H    1.95320925   0.51996206  -0.71189788
H    1.11672069   1.45760479   0.52575414
O   -0.76666766   2.05566384  -0.72847764
H   -1.49108821   2.23265935  -1.33830639
H    0.31656836  -1.96755931  -1.03696104
H   -0.79132356  -2.20541747   0.31543832
H    1.69995250  -1.26876383   0.76498642
H   -0.76276500   0.04998923   1.96818437
H    0.88167758   0.31043811   2.53783866
H   -0.54907090  -2.38909370   2.51176693
H   -0.20889288  -1.39349186   3.92282332
