25
Energy: 1.581
C    2.78924677   0.27085445  -0.95298331
H    3.83803591   0.55108823  -1.02027568
C    1.97403650   1.45792150  -0.44934094
C    0.49257666   1.17683610  -0.17635674
C   -0.29221267   0.59688036  -1.35831698
C   -1.53759099   0.01875281  -0.69482824
H   -2.06379111  -0.70138368  -1.32090510
H   -2.22833687   0.82058324  -0.43269762
C   -1.00827250  -0.64954384   0.59055259
C   -2.05643615  -0.69580667   1.69731732
H   -2.37026511   0.30801574   1.96868276
H   -1.64067584  -1.19322925   2.56946182
H   -2.91882269  -1.26332862   1.35752922
C    0.23450918   0.19112660   0.97691683
H    0.07239268   0.71989230   1.91489630
H    1.08052492  -0.47995555   1.12494967
O   -0.64670367  -1.99806239   0.34022323
H   -0.02057999  -2.00984033  -0.39194042
H   -0.52730756   1.35262503  -2.10671358
H    0.27432870  -0.19777244  -1.84572536
H    0.02908856   2.13454714   0.08663753
H    2.42169230   1.82501757   0.47758317
H    2.04089330   2.26237445  -1.18600475
H    2.46442629  -0.03965291  -1.94295510
H    2.71342796  -0.57920006  -0.27926907
