25
Energy: 0.981
C    0.21598179  -0.17333695   3.38487900
H    1.28074193   0.02873724   3.29845900
C   -0.39489959  -0.53188339   2.03483336
C   -0.28953515   0.60242136   1.01020497
C    1.13967771   0.79238544   0.48662995
C    1.24712332  -0.17973996  -0.68156987
H    1.40135768  -1.19545038  -0.31396561
H    2.06341716   0.06955044  -1.35984143
C   -0.12998615  -0.11304661  -1.37250012
C   -0.11859884   0.90367022  -2.51714195
H    0.16127672   1.88583388  -2.14687314
H   -1.10679804   0.96371965  -2.96820507
H    0.59435441   0.60562193  -3.28577552
C   -1.11138248   0.30194171  -0.25608716
H   -1.68552686   1.17383419  -0.56610643
H   -1.80776456  -0.51916456  -0.09284493
O   -0.53933272  -1.38195125  -1.85539045
H    0.03834164  -1.63607384  -2.58319459
H    1.26953911   1.81558288   0.12965994
H    1.89361848   0.60314389   1.24825300
H   -0.64744554   1.51924106   1.48783217
H    0.08540178  -1.42716687   1.63813253
H   -1.45149639  -0.76487126   2.18542460
H    0.08392503  -0.99266619   4.08792200
H   -0.26571933   0.71150343   3.79630936
