25
Energy: 0.13
C    2.52823372   1.22710866   2.10706984
H    1.77762792   1.86551886   2.56551382
C    2.14757637   0.89293678   0.66943249
C    0.84690995   0.09997943   0.57424622
C   -0.40249082   0.87388034   0.99978575
C   -1.55789375   0.05979495   0.41776200
H   -2.41023265   0.68205886   0.15242762
H   -1.88996887  -0.69492298   1.13006310
C   -1.01031718  -0.62269307  -0.85489147
C   -1.26009510  -2.13303903  -0.83688719
H   -2.32812334  -2.33066644  -0.77542589
H   -0.76547951  -2.58717473   0.01734049
H   -0.87515892  -2.59361359  -1.74655211
C    0.50293897  -0.30673831  -0.86023142
H    1.09973649  -1.14890822  -1.21048381
H    0.67693989   0.54233900  -1.52491419
O   -1.66832118  -0.03753990  -1.96644457
H   -1.35653220  -0.46579488  -2.77102795
H   -0.48631144   0.98159228   2.07976369
H   -0.37934226   1.86804966   0.55124563
H    0.93492456  -0.80128027   1.19083070
H    2.04692600   1.81789136   0.09672715
H    2.94999860   0.30695874   0.21384074
H    3.48272744   1.74783770   2.13534166
H    2.61607660   0.31885158   2.69947748
