25
Energy: 0.62
C   -0.15773717  -3.28386605   0.30121408
H   -1.00544807  -2.93901773   0.88721754
C    0.23254316  -2.24917127  -0.74758731
C    0.66130241  -0.91943456  -0.12555326
C    1.13322347   0.09715380  -1.19090281
C    0.17459456   1.28432458  -1.10832046
H   -0.67825266   1.13344482  -1.77215662
H    0.65486021   2.22696046  -1.37198674
C   -0.34470733   1.27231104   0.34008350
C    0.64387165   1.94428405   1.29403018
H    0.25488016   1.91070723   2.30950970
H    0.79450152   2.98692332   1.01505880
H    1.60254035   1.43585503   1.26792822
C   -0.48411278  -0.22723685   0.62706385
H   -0.46976271  -0.43295066   1.69534833
H   -1.44987192  -0.54251135   0.23105547
O   -1.62406708   1.86901104   0.45647253
H   -1.53306984   2.81828065   0.32064398
H    2.15307703   0.42113865  -0.98081982
H    1.12870458  -0.34393616  -2.18719977
H    1.48134386  -1.12454668   0.56939731
H    1.06002890  -2.64273765  -1.34358345
H   -0.61021001  -2.07547381  -1.42037450
H    0.67343573  -3.47103892   0.97791988
H   -0.42949949  -4.22322233  -0.17504832
