25
Energy: 0.923
C   -0.29579267  -0.06521721  -3.30294342
H   -1.16094897  -0.34784716  -3.89859645
C   -0.45631926  -0.55370391  -1.86749015
C    0.74306658  -0.18509157  -0.98687122
C    0.71917111   1.28129413  -0.54362397
C   -0.21969884   1.30835303   0.66291247
H   -1.25171795   1.47046182   0.34679906
H    0.03544081   2.10559448   1.35879969
C   -0.10909078  -0.08525370   1.33186691
C    0.53513712  -0.00345925   2.71378434
H    1.49917450   0.49360940   2.65494035
H    0.66813214  -1.00470095   3.11533391
H   -0.11716326   0.55004968   3.38402054
C    0.74397782  -0.92782582   0.35422990
H    1.76427811  -0.99641373   0.73179006
H    0.34802422  -1.94060896   0.27560605
O   -1.38584936  -0.66439587   1.53833455
H   -1.79599265  -0.81656997   0.68003570
H    1.72279415   1.58189345  -0.23893351
H    0.39004722   1.95442330  -1.33338035
H    1.65415136  -0.41070731  -1.54861752
H   -1.37147132  -0.13001495  -1.44903432
H   -0.56641796  -1.64121934  -1.88083525
H    0.59051673  -0.50347949  -3.75680535
H   -0.19723839   1.01694309  -3.33921849
