25
Energy: 0.897
C    1.04872224   2.63610615   1.72115835
H    0.44427594   2.29179068   2.55662277
C    0.72762388   1.86574539   0.44549787
C    1.06038770   0.37421436   0.54415911
C    0.11374937  -0.39344233   1.47231957
C   -1.11425004  -0.67271142   0.61143386
H   -1.76790445   0.20068756   0.59508963
H   -1.69020889  -1.52327051   0.97618455
C   -0.56734758  -0.90917143  -0.81559868
C   -0.57211529  -2.39908593  -1.16828425
H   -0.13345479  -2.54826619  -2.15262771
H   -1.59154841  -2.78448945  -1.18210268
H    0.00081599  -2.96142417  -0.43598615
C    0.86602852  -0.33668944  -0.80244541
H    1.58773280  -1.14536881  -0.91234811
H    0.98243091   0.34414873  -1.64366842
O   -1.30674148  -0.18137188  -1.78304213
H   -2.19306159  -0.55454440  -1.83955022
H    0.58025278  -1.33537267   1.76725052
H   -0.13463074   0.15850999   2.37652754
H    2.09654432   0.27961942   0.88266734
H   -0.32526713   1.98909179   0.19169763
H    1.31224818   2.29234408  -0.37286808
H    0.85410738   3.69680311   1.57949943
H    2.09722626   2.51296999   1.98570276
