25
Energy: 1.577
C    1.75488348  -0.56646043  -2.52170325
H    2.62073707  -0.61324637  -3.17870763
C    1.95560531   0.53784249  -1.48966327
C    0.83413611   0.69528817  -0.45969980
C   -0.56607243   0.93268075  -1.02715129
C   -1.47434098   0.75622634   0.18905662
H   -2.46335590   0.39093500  -0.08026834
H   -1.58711213   1.69962257   0.72270981
C   -0.77677081  -0.28204278   1.09626134
C   -0.64467329   0.22432993   2.53487297
H   -0.04738680   1.13160738   2.56276395
H   -0.16365006  -0.52741901   3.16043643
H   -1.63004672   0.43526613   2.94488741
C    0.61096040  -0.51160394   0.45300943
H    1.39916278  -0.62249214   1.19779330
H    0.56246353  -1.42332870  -0.14329840
O   -1.56322781  -1.46214363   1.07036035
H   -1.16026850  -2.11505342   1.65288249
H   -0.67211256   1.91489952  -1.48587510
H   -0.79842956   0.17191441  -1.77098263
H    1.09393577   1.55425572   0.17131259
H    2.88744861   0.35007431  -0.94956402
H    2.06902686   1.48924272  -2.01565227
H    0.87820734  -0.37566351  -3.13460157
H    1.64213917  -1.53716356  -2.04637638
