25
Energy: 0.832
C    1.33600362  -1.25202694   2.75854152
H    1.37268756  -1.24563033   3.84558823
C   -0.03106315  -0.78743041   2.27002901
C   -0.15242453  -0.82285315   0.74608304
C   -1.56749976  -0.42645531   0.26191889
C   -1.38940069   0.75097864  -0.69859301
H   -1.50450555   1.69783390  -0.16489039
H   -2.10791543   0.73776476  -1.51626160
C    0.06002670   0.64236072  -1.20456738
C    0.17877686  -0.35364854  -2.35462241
H    1.22034618  -0.44423712  -2.65089572
H   -0.38826709   0.00891313  -3.20778759
H   -0.19814377  -1.32672624  -2.05787862
C    0.80490749   0.15211995   0.04929903
H    1.75960806  -0.30556104  -0.20278846
H    0.99970698   1.01050598   0.69820352
O    0.56309819   1.86804962  -1.69610679
H    0.50714043   2.53095752  -0.99876321
H   -2.04273657  -1.26452880  -0.24738796
H   -2.20475132  -0.15125464   1.10213722
H    0.07137344  -1.84146880   0.41616961
H   -0.80025054  -1.43502110   2.69823965
H   -0.21865002   0.22927910   2.62425251
H    2.12256790  -0.60088007   2.38604173
H    1.53800780  -2.26424420   2.41494160
