25
Energy: 0.836
C    2.90848938   1.36156755   1.37848808
H    3.61280604   2.18454205   1.28067397
C    1.99296383   1.29588510   0.16170668
C    0.98293770   0.15211274   0.25201140
C   -0.08880868   0.36462646   1.34463455
C   -1.45070291   0.11436825   0.68618548
H   -1.93583181   1.06262632   0.44185992
H   -2.12733869  -0.44858635   1.32681006
C   -1.15166077  -0.63792832  -0.62470055
C   -1.04378186  -2.14244144  -0.39244851
H   -0.31445485  -2.35869070   0.38111689
H   -0.75039415  -2.63524066  -1.31543882
H   -2.01357915  -2.52995552  -0.09206899
C    0.19497445  -0.02917918  -1.04889116
H    0.71832644  -0.65284526  -1.77165213
H    0.01286082   0.94570978  -1.51031325
O   -2.16221330  -0.46520244  -1.59725270
H   -2.25220100   0.47460749  -1.79094110
H    0.07061966  -0.32182920   2.17557350
H   -0.03884447   1.37803308   1.74261134
H    1.53577605  -0.76831765   0.46128113
H    1.45881087   2.24322808   0.05471564
H    2.60191288   1.15609185  -0.73486379
H    3.47352470   0.43740149   1.47871472
H    2.33296046   1.50953889   2.28895503
