25
Energy: 0.524
C   -0.86546157   0.72365444   3.02924833
H   -1.26109552   0.06112008   3.79577119
C   -1.03812876   0.09600296   1.65136129
C   -0.58677959   1.01253993   0.51118590
C    0.93181247   1.20167336   0.45454618
C    1.45490394  -0.05815943  -0.23651083
H    1.67333872  -0.83927588   0.49048445
H    2.36109242   0.13497168  -0.80783680
C    0.31137948  -0.56600177  -1.13928740
C    0.68812652  -0.55617222  -2.62285089
H   -0.16925234  -0.83584769  -3.23468715
H    1.49039818  -1.26884338  -2.80275913
H    1.02146652   0.43314781  -2.92401867
C   -0.87625668   0.38146798  -0.85443008
H   -0.91380132   1.15716826  -1.62035277
H   -1.82314431  -0.15921279  -0.86653780
O    0.02598756  -1.89394818  -0.72644518
H   -0.66435398  -2.25384905  -1.29373080
H    1.16079255   2.08057679  -0.15142507
H    1.37777359   1.34420774   1.43620412
H   -1.09898815   1.97434457   0.61418112
H   -0.48696359  -0.84266801   1.59759332
H   -2.09697472  -0.13435119   1.50640087
H   -1.39860787   1.67096142   3.08673093
H    0.18227291   0.90783707   3.25237495
