25
Energy: 1.448
C    1.55811936   1.41374727  -2.24206341
H    1.88437211   1.66826239  -3.24822296
C    1.29463552  -0.08537610  -2.15139108
C    0.68545725  -0.56604840  -0.83180315
C    1.41493923  -0.12922811   0.43902909
C    0.42344678  -0.49667303   1.53860384
H    0.59944063   0.05887750   2.46015709
H    0.48715515  -1.56274207   1.76135544
C   -0.96914433  -0.16874949   0.94599031
C   -2.00179318  -1.23071857   1.33050649
H   -1.72759893  -2.19512309   0.91165990
H   -2.98076751  -0.94651382   0.95006403
H   -2.06390108  -1.32652780   2.41435247
C   -0.74755211  -0.08778988  -0.57838782
H   -1.48189030  -0.67534028  -1.12662307
H   -0.86075277   0.95665733  -0.86480152
O   -1.41628625   1.11241117   1.36113614
H   -1.61141637   1.08297799   2.30413055
H    2.38057536  -0.61855899   0.56178947
H    1.56168832   0.94983997   0.43153059
H    0.67899273  -1.66289528  -0.85675215
H    0.61809307  -0.37659136  -2.95897008
H    2.23806186  -0.61457266  -2.30850911
H    2.33957082   1.71519825  -1.54956129
H    0.66105490   1.98636394  -2.02290809
