25
Energy: 0.0
C   -1.63189323   1.18387467  -2.65658371
H   -1.64143316   1.83275259  -3.52945893
C   -0.20240757   0.79572911  -2.29714778
C   -0.13605811  -0.16006872  -1.10953974
C    1.28746850  -0.61285907  -0.77876417
C    1.15145522  -1.19708574   0.62284554
H    2.10305088  -1.23351150   1.15372623
H    0.74722973  -2.20882841   0.56877393
C    0.14320573  -0.27002379   1.34199711
C   -0.79295254  -1.06471622   2.25547831
H   -1.45384980  -0.38332513   2.78724478
H   -0.21867249  -1.63367240   2.98634467
H   -1.39490691  -1.75627502   1.67240813
C   -0.61320086   0.45663966   0.21004850
H   -1.69089915   0.38174989   0.33922183
H   -0.33120224   1.50885147   0.25479208
O    0.81195597   0.73230866   2.09138145
H    1.26333832   0.31612245   2.83384922
H    1.67957405  -1.33176536  -1.49731358
H    1.94751218   0.25542971  -0.75568972
H   -0.74327123  -1.04441796  -1.33306574
H    0.26732307   0.31633815  -3.15986760
H    0.37130913   1.69579361  -2.06510414
H   -2.10516868   1.71171725  -1.83282789
H   -2.22237090   0.29828698  -2.88213365
