25
Energy: 0.107
C    0.77632481   1.90305024   2.85253821
H    0.50499752   1.03340084   3.44539420
C    0.06899723   1.87932079   1.50236607
C    0.46986997   0.68013952   0.64770133
C    0.01451256  -0.67264371   1.19764984
C    0.15625157  -1.60471369  -0.00210898
H   -0.47515511  -2.48939437   0.08392847
H    1.19269068  -1.93023757  -0.10138923
C   -0.24294608  -0.75209008  -1.23110608
C    0.68557802  -1.01830242  -2.41826114
H    1.70310796  -0.72362367  -2.17666473
H    0.34944977  -0.44939331  -3.28268887
H    0.68103443  -2.07736737  -2.67534738
C   -0.16940172   0.70925117  -0.74452675
H    0.37858144   1.34132715  -1.44079981
H   -1.19229344   1.08072873  -0.67600360
O   -1.58966539  -0.98958920  -1.60898558
H   -1.65893247  -1.88103529  -1.96784746
H    0.60469285  -1.00754258   2.04920366
H   -1.03245143  -0.60789581   1.49731030
H    1.56054304   0.66850584   0.54264195
H   -1.01192683   1.86221933   1.65868112
H    0.31019787   2.79447053   0.95593941
H    0.49985741   2.79528340   3.40974583
H    1.85597593   1.90460154   2.71790745
