25
Energy: 0.976
C   -0.07051014  -3.05451524  -1.63351166
H   -1.11873523  -2.86826978  -1.85420965
C    0.43621256  -2.13581465  -0.52746425
C    0.33164944  -0.65033905  -0.88789304
C   -1.12034172  -0.14132903  -0.85488073
C   -1.27683007   0.52314770   0.50721263
H   -1.43067838  -0.23104265   1.28091887
H   -2.10796582   1.22813391   0.53804922
C    0.08192663   1.19979095   0.75938628
C    0.14306089   2.58356545   0.10916667
H    0.00229305   2.50598094  -0.96460934
H    1.11207906   3.03784571   0.30495154
H   -0.63194820   3.23228148   0.51695955
C    1.09162253   0.22586629   0.12754817
H    1.91538666   0.76641941  -0.33516117
H    1.50199350  -0.38328802   0.93259815
O    0.37915059   1.29855134   2.14197317
H   -0.22058241   1.93869358   2.54005038
H   -1.28140813   0.59186692  -1.64649482
H   -1.83997144  -0.94574923  -0.99586211
H    0.75155131  -0.51841174  -1.88926675
H   -0.12277544  -2.32212749   0.39151181
H    1.48428766  -2.37452944  -0.33264941
H    0.03333351  -4.09565013  -1.33643067
H    0.50116328  -2.90034729  -2.54637715
