25
Energy: 1.57
C   -1.44313480  -0.59128887   2.58329144
H   -1.63549987  -0.74655771   3.64251426
C   -0.07304392  -1.15734613   2.22389119
C    0.39392432  -0.90075037   0.78768004
C   -0.57224458  -1.34909468  -0.31254391
C   -0.02343861  -0.64501796  -1.54909829
H   -0.74476062  -0.57968679  -2.36345077
H    0.86085480  -1.16820000  -1.91388145
C    0.37410393   0.76232315  -1.05209564
C    1.56873618   1.32690443  -1.81419792
H    1.33106103   1.38458134  -2.87320853
H    2.44221239   0.69649147  -1.67465940
H    1.78532572   2.32988457  -1.45632223
C    0.66655633   0.57503832   0.45892598
H    1.69083344   0.85332571   0.70169405
H    0.00726519   1.23192798   1.02693270
O   -0.68546421   1.68363379  -1.25258858
H   -1.47780709   1.32718227  -0.83625916
H   -0.60127657  -2.43229837  -0.42338271
H   -1.58374861  -0.99978876  -0.10059532
H    1.32903897  -1.45603902   0.65001192
H    0.67316701  -0.73239055   2.89988208
H   -0.08948891  -2.23706598   2.39183952
H   -2.23281510  -1.08792416   2.02511398
H   -1.49669440   0.47678763   2.38735975
