25
Energy: 1.001
C    3.37767586  -0.54311043  -0.30330681
H    3.69485187  -1.04206855   0.61022096
C    1.91912804  -0.86711523  -0.60670612
C    0.96667178  -0.44422461   0.51677659
C    0.76715243   1.07783466   0.57035371
C   -0.44813665   1.33780109  -0.31032065
H   -0.16705175   1.29645711  -1.36394632
H   -0.91158218   2.30456223  -0.11230346
C   -1.39453078   0.15942653  -0.01427204
C   -2.31659830   0.47738348   1.16540896
H   -2.96237993  -0.37444689   1.36789370
H   -2.94311686   1.34003860   0.93919258
H   -1.73282221   0.69598772   2.05471005
C   -0.44855230  -1.01549105   0.30305596
H   -0.79723865  -1.55940090   1.17940089
H   -0.47151027  -1.69824838  -0.54543295
O   -2.16495496  -0.19989061  -1.14902249
H   -2.79199988   0.50809279  -1.33217439
H    0.55700285   1.39172924   1.59405749
H    1.64392063   1.62326630   0.22632189
H    1.38313672  -0.80538917   1.46156610
H    1.61927034  -0.38204382  -1.53699525
H    1.82869273  -1.94596390  -0.75230342
H    3.52882338   0.52602595  -0.17603818
H    4.01620655  -0.88041522  -1.11663520
