25
Energy: 1.111
C    2.53507764  -1.77814313  -1.48123119
H    3.24183971  -1.17116924  -0.92103131
C    1.13890327  -1.16631508  -1.46181655
C    0.55903478  -1.04872293  -0.04822686
C    1.22003784   0.07776081   0.75959230
C    0.35621309   1.30291463   0.49332718
H    0.57435476   1.72715393  -0.48648865
H    0.48315247   2.08349087   1.24105649
C   -1.08055816   0.76684579   0.46105901
C   -1.71235515   0.77364817   1.85488840
H   -1.09973658   0.20818827   2.55098902
H   -2.70619828   0.32723756   1.82525265
H   -1.80356002   1.79656618   2.21455585
C   -0.93714050  -0.67819568  -0.07950332
H   -1.52792371  -1.37276298   0.51811897
H   -1.31511266  -0.70908326  -1.10226037
O   -1.83220772   1.58742302  -0.41667255
H   -2.75571628   1.31634719  -0.37765316
H    1.20199114  -0.16550395   1.82327207
H    2.25627379   0.24100701   0.47094280
H    0.70170555  -2.01069824   0.45312055
H    1.16169716  -0.17885305  -1.92552603
H    0.47844288  -1.79888469  -2.06002220
H    2.89640094  -1.86111590  -2.50373881
H    2.51916541  -2.77369410  -1.04198397
