25
Energy: 0.718
C   -2.62147838  -1.17243054   1.59755988
H   -3.01378960  -2.09171217   2.02667221
C   -1.09906828  -1.16106267   1.66775021
C   -0.49365870   0.11897748   1.08539556
C    1.03560781   0.16195313   1.27703732
C    1.62407012  -0.20200628  -0.08078937
H    1.61220332  -1.28407096  -0.22176186
H    2.64701955   0.15425415  -0.20457018
C    0.65219787   0.42523650  -1.09523393
C    0.96539072   1.90458479  -1.32747771
H    1.97744209   2.02525213  -1.71338527
H    0.87751916   2.46267817  -0.40045377
H    0.26736143   2.31679482  -2.05312778
C   -0.72118582   0.22707591  -0.43356880
H   -1.40190803   1.03533377  -0.69393333
H   -1.13314044  -0.70070651  -0.82955028
O    0.64597340  -0.27129180  -2.32975167
H    1.48696264  -0.11741629  -2.77343727
H    1.35343224   1.16603163   1.56138519
H    1.36388634  -0.52307924   2.05799079
H   -0.95437580   0.96893145   1.59734742
H   -0.79555219  -1.25120536   2.71393451
H   -0.70066214  -2.02341599   1.12934189
H   -2.96467050  -1.10182657   0.56875045
H   -3.03313010  -0.33216082   2.15289600
