25
Energy: 0.723
C    3.28205338   0.86007073   0.84151591
H    2.94119670   1.89223454   0.86844445
C    2.36492847   0.00570554  -0.02597507
C    0.92179580  -0.00308585   0.47857335
C    0.19986986   1.35035294   0.29068258
C   -1.07845343   1.06029918  -0.50128792
H   -0.91524528   1.23309166  -1.56631507
H   -1.91616994   1.67890898  -0.17818754
C   -1.35229192  -0.44224688  -0.30510590
C   -2.11276741  -0.70490844   0.99537732
H   -2.26206805  -1.77454422   1.12604428
H   -3.08829921  -0.21980479   0.96940050
H   -1.55727285  -0.31977844   1.84468992
C    0.06203670  -1.02950514  -0.26834649
H    0.08310051  -2.01249762   0.19803998
H    0.40042379  -1.13388503  -1.29982351
O   -2.04396779  -1.00866376  -1.40340840
H   -2.94673701  -0.67259193  -1.40372020
H   -0.04110035   1.79207039   1.25784946
H    0.82989749   2.05915094  -0.24540525
H    0.94038910  -0.25902865   1.54247390
H    2.38418688   0.37357184  -1.05421775
H    2.73886164  -1.02084513  -0.03437791
H    4.29719599   0.84503478   0.45146496
H    3.30168121   0.48143389   1.86129972
