25
Energy: 0.993
C   -2.85669188  -1.33046044   0.17700189
H   -2.55204881  -1.60864187  -0.82909685
C   -1.69525053  -0.73202379   0.96226115
C   -1.14233927   0.54574648   0.32142691
C   -0.12431218   1.24589053   1.22853430
C    1.18370550   0.50158678   0.97678999
H    1.23660667  -0.39541610   1.59675212
H    2.05677822   1.11045748   1.20472964
C    1.14955543   0.09165232  -0.51537010
C    2.09113293   0.95341256  -1.35392009
H    1.98332768   0.69847043  -2.40500434
H    3.11881516   0.75856290  -1.05875584
H    1.86761085   2.00684027  -1.21191075
C   -0.32681427   0.28029225  -0.94980438
H   -0.40284502   1.13457398  -1.62212717
H   -0.67265869  -0.59787913  -1.49390736
O    1.58503947  -1.24326086  -0.70278163
H    0.98713488  -1.83256983  -0.23006330
H   -0.02105473   2.28799450   0.92164938
H   -0.41656361   1.22678664   2.27786123
H   -1.98840698   1.20568971   0.10871913
H   -2.04325517  -0.49256706   1.97026078
H   -0.90242191  -1.47632755   1.05961915
H   -3.67073703  -0.61302175   0.09872208
H   -3.23211093  -2.22121716   0.67588310
