25
Energy: 0.973
C   -0.42704251   0.77623347  -3.15340238
H    0.19408652   1.00574291  -4.01625658
C    0.30167093  -0.17638588  -2.21252331
C   -0.53266150  -0.53829456  -0.97976637
C    0.13292428  -1.65219521  -0.15544209
C    0.95944285  -0.92003890   0.89238818
H    1.88391305  -0.53791854   0.46027678
H    1.21133368  -1.54327330   1.74826184
C    0.09515697   0.28201771   1.29242155
C   -0.87268738  -0.07370972   2.42293766
H   -0.31455607  -0.33497633   3.31971766
H   -1.49634240  -0.91570339   2.13749391
H   -1.51848673   0.77388887   2.65197421
C   -0.66955473   0.64668031  -0.00466766
H   -1.71492731   0.86854086   0.21066963
H   -0.21545164   1.54240551  -0.42910345
O    0.96122815   1.32555951   1.70515162
H    0.42857320   2.05094512   2.04860410
H   -0.62836962  -2.26231291   0.33358403
H    0.74304289  -2.30919144  -0.77360535
H   -1.51743757  -0.86507597  -1.32694596
H    0.53765023  -1.09214559  -2.76000810
H    1.24342847   0.27206756  -1.89143496
H   -0.67402853   1.71010193  -2.65439943
H   -1.35214898   0.32563367  -3.50755492
