25
Energy: 0.518
C    2.14454524   0.05790061  -2.30049675
H    3.13646443  -0.28343957  -2.00975261
C    1.46752397   0.78526435  -1.14502538
C    1.29544828  -0.11119512   0.08484267
C    0.92609141   0.69152053   1.33580301
C   -0.56941638   0.95625270   1.18129507
H   -0.72912287   1.83942918   0.56105393
H   -1.06070887   1.11839763   2.14060519
C   -1.13535246  -0.28154083   0.44219689
C   -1.99886607  -1.13991414   1.36977669
H   -2.33905039  -2.02822508   0.84167153
H   -2.87243599  -0.57986974   1.70326774
H   -1.42828567  -1.44395308   2.24312127
C    0.09948719  -1.05684946  -0.06273385
H    0.24714529  -1.95164056   0.54134453
H   -0.06567502  -1.35873611  -1.09443296
O   -1.88769791   0.10004489  -0.69940291
H   -2.69162775   0.54248750  -0.40657887
H    1.10518809   0.08387786   2.22503204
H    1.50181391   1.61158258   1.42956286
H    2.22235644  -0.67040479   0.24173137
H    2.07248412   1.65405690  -0.87368249
H    0.48825589   1.13961961  -1.46738438
H    2.24760228   0.72034599  -3.15697173
H    1.56273233  -0.80709928  -2.60886794
