25
Energy: 0.129
C   -1.79837117   2.48165058   1.31757802
H   -1.13631598   3.28488297   1.00098439
C   -0.99117675   1.29709492   1.83637594
C   -0.00399590   0.75855179   0.80461719
C    0.86258320  -0.38407991   1.33862745
C    1.45649005  -1.01441991   0.08077159
H    1.65577789  -2.07712524   0.20265411
H    2.38607910  -0.51621538  -0.19307251
C    0.40504924  -0.81609700  -1.03260983
C    1.02573067  -0.20319613  -2.29086374
H    1.44813301   0.77246093  -2.06648900
H    0.27163876  -0.08479695  -3.06877761
H    1.81253679  -0.85234334  -2.66917891
C   -0.66270447   0.12201223  -0.42104059
H   -1.01313591   0.86040354  -1.14125669
H   -1.51262536  -0.48347542  -0.09861265
O   -0.13643366  -2.09186574  -1.33401167
H   -0.77830165  -1.99510623  -2.04579410
H    1.62949342  -0.04038351   2.03150124
H    0.22755772  -1.10498980   1.85543367
H    0.64752196   1.57600674   0.47666258
H   -0.43382204   1.60507569   2.72451148
H   -1.67172146   0.49623816   2.13497205
H   -2.45313583   2.86519196   2.09680669
H   -2.41277864   2.18861093   0.47008879
