23
Energy: 2.452
C   -1.48873135   1.77358692  -0.25280009
H   -1.17608076   2.71742296  -0.69461251
H   -1.11800745   1.74035699   0.76653138
H   -2.57651387   1.74991590  -0.23082447
C   -0.94485381   0.60157988  -1.07828202
C   -1.57957684  -0.69018784  -0.65774121
C   -0.91393635  -1.77587193  -0.30295946
C    0.58112108  -1.83173037  -0.24454190
C    1.16361655  -0.43690893  -0.01329731
C    0.59072319   0.53830584  -1.04700171
H    0.95471718   0.22232956  -2.02764571
H    0.98222614   1.53879616  -0.85451533
C    0.90533944  -0.00230172   1.43600034
O    1.30830963   1.31814552   1.71038284
H    2.24354193   1.40414885   1.49485047
H   -0.16187800  -0.04265990   1.65803645
H    1.41915813  -0.70344047   2.11265495
H    2.25239830  -0.47495677  -0.15857798
H    0.96531960  -2.23677304  -1.18646346
H    0.89734123  -2.50919045   0.55250631
H   -1.44073459  -2.68266904  -0.03986767
H   -2.66144996  -0.69673634  -0.67642693
H   -1.25276695   0.77994218  -2.11841522
