23
Energy: 1.52
C   -0.21483777   2.88224274   0.57832202
H   -0.89441767   3.25260416  -0.18591715
H    0.80522923   3.09828151   0.26698238
H   -0.41237246   3.41748721   1.50459514
C   -0.40271845   1.37746431   0.77289857
C    0.53659054   0.85920114   1.82289602
C    1.18597907  -0.28849573   1.72913533
C    1.05765819  -1.22567430   0.56743393
C   -0.15745658  -0.88191018  -0.29246247
C   -0.19413542   0.62436010  -0.54091631
H   -0.99765010   0.85628501  -1.24068084
H    0.75283963   0.93598595  -0.98856367
C   -0.13295048  -1.65763371  -1.60964641
O   -1.36129215  -1.46302201  -2.27746231
H   -1.34617934  -1.94404207  -3.11057237
H    0.70305526  -1.30319511  -2.23129297
H    0.02317438  -2.72732294  -1.40241048
H   -1.06986470  -1.16748952   0.24003594
H    0.98558062  -2.25356237   0.93328289
H    1.96772623  -1.16556049  -0.04074394
H    1.86195064  -0.60217336   2.51354592
H    0.66281834   1.48773882   2.69418403
H   -1.43076994   1.20478937   1.11978095
