23
Energy: 4.927
C    0.77217758  -1.92627226   0.80840341
H    0.81453730  -3.00931783   0.71130264
H    1.07493699  -1.65737338   1.81791354
H    1.47859143  -1.49690705   0.10454741
C   -0.65035259  -1.43176888   0.53161975
C   -1.04359848  -1.70524142  -0.88970011
C   -0.70402785  -0.86547572  -1.85281367
C    0.12607021   0.35027336  -1.58168918
C   -0.15703545   1.00309141  -0.21344165
C   -0.82770185   0.06713524   0.80634413
H   -1.90198749   0.26639043   0.80993616
H   -0.44507508   0.30726542   1.80049123
C    1.14042731   1.59542751   0.35831933
O    0.93579143   2.32327077   1.54556863
H    0.29227611   3.01973947   1.37327968
H    1.83755190   0.80014220   0.62779642
H    1.61626116   2.23329230  -0.40289516
H   -0.84208114   1.84454209  -0.38056543
H   -0.02235866   1.08585519  -2.37484281
H    1.18017594   0.05554349  -1.62175257
H   -0.98079604  -1.04698565  -2.88143901
H   -1.61557476  -2.59736932  -1.09727811
H   -1.32446185  -1.97262122   1.20562532
