23
Energy: 2.77
C   -0.49621877   0.22062524   2.26687756
H    0.24955582  -0.55047765   2.09967006
H   -1.33982788  -0.22164965   2.79293493
H   -0.06813019   0.99664491   2.89797048
C   -0.95842279   0.81852865   0.93347390
C   -1.65798374  -0.22100183   0.11254485
C   -1.29107776  -0.59222197  -1.10343214
C   -0.12092228  -0.00024553  -1.83016004
C    0.90327652   0.60594547  -0.86457709
C    0.18639565   1.49190896   0.16121622
H   -0.22489140   2.34163737  -0.39006866
H    0.91717488   1.88510850   0.87030313
C    1.82356832  -0.47356668  -0.27050155
O    1.19113118  -1.55145871   0.37034508
H    0.44807643  -1.83674700  -0.17575996
H    2.45766059  -0.85816752  -1.08713551
H    2.48028073  -0.02509071   0.48031834
H    1.57347764   1.25990562  -1.43662394
H   -0.48702939   0.78158837  -2.50424549
H    0.35646731  -0.75916482  -2.45746759
H   -1.85638837  -1.34175686  -1.64232323
H   -2.51258099  -0.68461976   0.58700715
H   -1.69921182   1.59478384   1.17182956
