23
Energy: 3.464
C    0.15218364   2.52915153  -0.26535176
H   -0.29519475   3.20176117  -0.99456193
H    0.95018537   3.06287890   0.24655420
H   -0.60781113   2.26280108   0.46294055
C    0.70841669   1.28608298  -0.96947672
C   -0.37885783   0.58804106  -1.73210323
C   -0.72188188  -0.67749654  -1.56192843
C   -0.07463793  -1.58031816  -0.56033230
C    0.57112844  -0.77798201   0.57023078
C    1.44439956   0.33338176  -0.01467464
H    2.25149981  -0.15265848  -0.56743272
H    1.90108773   0.90900105   0.79325838
C   -0.50377793  -0.26801029   1.53187786
O   -0.97731569  -1.37255852   2.27855278
H   -1.67872898  -1.07596158   2.86653835
H   -0.07248102   0.48556745   2.20710621
H   -1.32804192   0.18878393   0.96875576
H    1.20843353  -1.44657329   1.15888770
H    0.68405854  -2.18904089  -1.06254180
H   -0.81258704  -2.26458435  -0.13788527
H   -1.50319385  -1.11638037  -2.16794757
H   -0.88755907   1.19840183  -2.46700013
H    1.44008425   1.64891795  -1.70488078
