23
Energy: 0.397
C   -2.79227482  -1.24636692  -0.70909590
H   -2.85261802  -1.32098257  -1.79259345
H   -3.32648907  -0.35213101  -0.39465699
H   -3.28655990  -2.11293450  -0.27573946
C   -1.33262628  -1.17789108  -0.25959413
C   -1.24483471  -1.06921780   1.23467084
C   -0.38394787  -0.28920956   1.86483624
C    0.62441556   0.57364613   1.16929225
C    0.77526252   0.19203554  -0.30589881
C   -0.61066731  -0.00113143  -0.91803715
H   -0.52554950  -0.17362630  -1.99285499
H   -1.19700150   0.90865069  -0.76893618
C    1.56502108   1.25424653  -1.08160009
O    2.90181472   1.38096270  -0.66117337
H    2.90902258   1.63141834   0.26901904
H    1.62214056   0.97618276  -2.13696751
H    1.04563195   2.22243458  -1.00941734
H    1.32606777  -0.75251410  -0.36922206
H    1.58300701   0.48106135   1.68907395
H    0.30764271   1.62093377   1.25037635
H   -0.37680418  -0.23980168   2.94553221
H   -1.94057326  -1.67951716   1.79393603
H   -0.83814650  -2.11056135  -0.56427436
