23
Energy: 3.943
C    2.26517020  -1.84394910   0.44741439
H    3.25291673  -1.53829075   0.78501264
H    2.38509044  -2.61382908  -0.31196554
H    1.73138743  -2.27624351   1.29193172
C    1.50172099  -0.64882819  -0.11277281
C    1.31161170   0.43430596   0.90683460
C    0.51262549   1.44739813   0.60874589
C   -0.13274551   1.47307279  -0.73967088
C   -0.76502644   0.10779833  -1.08176884
C    0.11413365  -1.07390319  -0.62655074
H    0.23758620  -1.78075369  -1.44879218
H   -0.38435280  -1.61427615   0.18386533
C   -2.16630006   0.01418094  -0.45634705
O   -2.19635597   0.30895064   0.91640392
H   -1.44131947  -0.12024493   1.33685348
H   -2.83587227   0.73979419  -0.92630101
H   -2.57479360  -0.99308788  -0.64005812
H   -0.90196864   0.05958835  -2.16649972
H    0.63137940   1.69706409  -1.49110431
H   -0.89578041   2.24904404  -0.79376193
H    0.31041505   2.25235292   1.29750168
H    1.81087348   0.34333710   1.85921286
H    2.06469945  -0.23711899  -0.96114448
