23
Energy: 3.583
C   -1.24152689  -0.36307820   1.98436997
H   -1.40300675  -1.33344967   2.44979740
H   -1.91901841  -0.27605632   1.13986879
H   -1.50047682   0.40807260   2.70768810
C    0.22732653  -0.22022035   1.56460364
C    0.52074079   1.17083532   1.08365042
C    0.99666733   1.46422045  -0.11642367
C    1.28177423   0.44516380  -1.17562679
C    0.52450536  -0.86329631  -0.93112972
C    0.66482431  -1.27709596   0.53978545
H    1.72246001  -1.49566178   0.70705666
H    0.11046993  -2.20233424   0.71180633
C   -0.93112778  -0.76741370  -1.43113606
O   -1.52991886   0.49916015  -1.31992385
H   -1.29239127   0.87748991  -0.46393200
H   -0.96015074  -0.99503827  -2.50102576
H   -1.53897594  -1.52640690  -0.91379009
H    0.99379233  -1.65621381  -1.52498804
H    2.35874016   0.24867352  -1.19374681
H    1.00846656   0.85090133  -2.15213437
H    1.20787445   2.49124990  -0.38139281
H    0.32717435   1.95759276   1.80119083
H    0.82263830  -0.37602843   2.47516617
