23
Energy: 0.15
C    0.79855055  -0.41351979   2.84346432
H    0.60286028  -1.21934361   3.54721448
H    0.66510844   0.53455880   3.36048935
H    1.83417413  -0.48646294   2.51710803
C   -0.14461510  -0.50702771   1.64372878
C    0.04467155  -1.81064643   0.92203214
C    0.03026109  -1.92878960  -0.39480442
C   -0.19986630  -0.78578814  -1.33225506
C   -0.72929989   0.44911920  -0.60265208
C    0.07737036   0.65978719   0.67960455
H   -0.21163456   1.59839542   1.16036515
H    1.14275902   0.70798798   0.43882622
C   -0.68605238   1.68148322  -1.51818311
O    0.60272500   1.99530148  -1.98624537
H    1.16798778   2.16903330  -1.22553291
H   -1.28064675   1.49454532  -2.41593915
H   -1.12127209   2.54362414  -0.98995087
H   -1.77693571   0.28322083  -0.32912272
H   -0.90322126  -1.08871686  -2.11229324
H    0.73987522  -0.53080169  -1.83397043
H    0.19011718  -2.89241149  -0.85950201
H    0.20085079  -2.67741202   1.54942753
H   -1.17717650  -0.46581611   2.01762758
