23
Energy: 4.177
C   -1.27288995   1.93414479  -0.43262348
H   -1.29015482   2.72170508   0.31733417
H   -1.93134779   1.13746376  -0.10128607
H   -1.66201644   2.33863709  -1.36539758
C    0.15907780   1.42317061  -0.62816672
C    0.22515562   0.46697793  -1.78164250
C    0.74798568  -0.74591630  -1.72421620
C    1.32111363  -1.32665407  -0.46896464
C    0.67685390  -0.69275110   0.76400594
C    0.75094055   0.83349247   0.66281100
H    1.80579486   1.10978889   0.72610121
H    0.24084293   1.26181715   1.52566010
C   -0.75308548  -1.21077473   0.93599791
O   -1.33291663  -0.60865556   2.07440684
H   -2.22256373  -0.95515355   2.19210885
H   -1.34132367  -0.99454159   0.03462386
H   -0.72001246  -2.30419262   1.06236140
H    1.23011707  -0.99087681   1.66113862
H    2.40011674  -1.14354840  -0.44756359
H    1.17622147  -2.40970949  -0.45882336
H    0.78409838  -1.37070445  -2.60629520
H   -0.18377932   0.84048372  -2.71162760
H    0.76514111   2.29703128  -0.90610083
