23
Energy: 2.502
C   -1.57040034  -1.65790097  -0.39080078
H   -1.88071655  -0.75637198  -0.91211929
H   -2.43373027  -2.04140412   0.14962782
H   -1.27263502  -2.40545417  -1.12433745
C   -0.42292818  -1.38073089   0.58941037
C   -0.84649684  -0.37308977   1.61733075
C   -0.21168080   0.76082553   1.86077731
C    1.01653937   1.19475526   1.12249975
C    1.08928601   0.53860161  -0.25723079
C    0.88758473  -0.97359178  -0.10243851
H    1.72164691  -1.34148884   0.50026586
H    0.96161120  -1.46579517  -1.07535822
C    0.08342232   1.21467720  -1.20147683
O    0.05584608   0.66161813  -2.49392732
H   -0.21709957  -0.26006240  -2.42149169
H   -0.91724493   1.20484084  -0.74834452
H    0.37578197   2.25872532  -1.34375460
H    2.08690908   0.69594590  -0.68306157
H    1.89999022   0.91838791   1.70730554
H    1.02321617   2.28251979   1.02252298
H   -0.56580972   1.42855742   2.63405313
H   -1.73441052  -0.63376441   2.17779276
H   -0.23581807  -2.32595619   1.11785646
