23
Energy: 2.504
C   -0.54976816  -0.48453307   2.43511901
H   -0.17320536  -0.04196883   3.35520408
H   -1.05033168  -1.41733114   2.68531253
H   -1.27905942   0.19396813   2.00344118
C    0.60877753  -0.74608804   1.46586269
C    1.34509733   0.52865572   1.18048593
C    1.55099997   1.02185704  -0.02860719
C    1.05304958   0.36330047  -1.27798805
C   -0.16464000  -0.51782418  -0.98473882
C    0.16574595  -1.45760864   0.17780843
H    0.97813505  -2.10842104  -0.15449165
H   -0.69586777  -2.09276137   0.39160951
C   -1.41519283   0.33592723  -0.73154038
O   -1.97902165   0.83683947  -1.92240453
H   -1.32149971   1.38079099  -2.36960415
H   -2.20153425  -0.27717186  -0.28549939
H   -1.17564756   1.16248549  -0.04894992
H   -0.38253935  -1.13359818  -1.86580873
H    1.85361812  -0.25107846  -1.70352657
H    0.81114295   1.12429278  -2.02583259
H    2.10994637   1.93873785  -0.15841050
H    1.72138538   1.04756255   2.05208017
H    1.30728318  -1.41324236   1.98983760
