23
Energy: 2.102
C    1.63540536   0.12483301  -1.94704472
H    1.75703409   0.97561948  -1.28383096
H    1.50562884   0.49787962  -2.96096051
H    2.54531586  -0.47103218  -1.91691723
C    0.42705947  -0.72810444  -1.54420174
C   -0.83887268   0.06776485  -1.66235820
C   -1.69530506   0.26927274  -0.67576887
C   -1.49946194  -0.25634025   0.71122174
C   -0.02305467  -0.54385875   0.98964614
C    0.57724574  -1.36449224  -0.15434319
H    0.06503969  -2.32970523  -0.15965214
H    1.63405303  -1.55568032   0.04550931
C    0.72340645   0.76964187   1.25327473
O    0.32451633   1.37959735   2.45959413
H    0.47350535   0.76055838   3.18333809
H    1.80852333   0.58724622   1.26098127
H    0.49044021   1.50039310   0.47740296
H    0.05341365  -1.14627246   1.90628346
H   -2.08999744  -1.16986791   0.83754857
H   -1.86665272   0.47421959   1.43590830
H   -2.59972281   0.83714636  -0.84593268
H   -1.02938516   0.48220571  -2.64350060
H    0.36669510  -1.54515899  -2.27676424
