23
Energy: 2.867
C   -2.57618371   0.20336635   1.36639241
H   -2.92281864  -0.72640605   1.81238433
H   -3.05854750   0.32012268   0.39805954
H   -2.88313131   1.02685668   2.00772710
C   -1.06041185   0.18942525   1.20554321
C   -0.54407868   1.45428216   0.59088737
C    0.72876978   1.50341016   0.22678330
C    1.58726111   0.30733909   0.49420256
C    0.89815287  -0.99326771   0.02552010
C   -0.61241998  -0.98651335   0.31963899
H   -0.90697945  -1.92601704   0.78894415
H   -1.14870133  -0.90472127  -0.62852301
C    1.13716695  -1.20353444  -1.47884591
O    0.47441907  -0.26536569  -2.28651182
H    0.64077503   0.61344437  -1.92084377
H    2.22000520  -1.18576681  -1.68164434
H    0.75222131  -2.18050185  -1.78419214
H    1.37769083  -1.83011720   0.54274485
H    1.75391081   0.23295298   1.57382830
H    2.56484378   0.40099885   0.01782457
H    1.17180761   2.37620548  -0.23084921
H   -1.22790519   2.27349741   0.43218621
H   -0.59990453   0.06722643   2.19562104
