23
Energy: 4.296
C   -1.22359208  -1.46208459   2.51805567
H   -0.72726249  -2.19409413   3.15142698
H   -2.20537232  -1.84768064   2.25196332
H   -1.35834411  -0.54556610   3.08893487
C   -0.39513758  -1.19104563   1.26749046
C    0.96534167  -0.65306622   1.59578435
C    1.70400881  -0.14630131   0.62264965
C    1.21703061  -0.21308825  -0.79146098
C   -0.29161979   0.09941296  -0.93458285
C   -1.07201249  -0.15115574   0.36326754
H   -2.08809173  -0.46732738   0.12336388
H   -1.13913268   0.78286348   0.92733945
C   -0.50776673   1.55329602  -1.38312623
O   -0.16533039   1.78299934  -2.72762814
H    0.75442729   1.52822816  -2.86345350
H   -1.56867096   1.80597735  -1.31601631
H    0.05296942   2.22737341  -0.71791874
H   -0.69629808  -0.54147737  -1.72500864
H    1.39706664  -1.22889433  -1.15929791
H    1.80462697   0.45983930  -1.42059626
H    2.67905984   0.28103821   0.80331326
H    1.28523762  -0.64923617   2.62627711
H   -0.28784536  -2.12589865   0.70198592
