23
Energy: 1.604
C   -0.22816891  -2.86003210  -1.27252072
H   -0.24728521  -3.13930946  -2.32357813
H   -1.02728215  -3.39151538  -0.76009663
H    0.72317204  -3.17644889  -0.84969007
C   -0.40278508  -1.34928681  -1.11329021
C    0.70135148  -0.61323792  -1.81660090
C    1.30919857   0.45096346  -1.32083417
C    0.96700040   1.06074894   0.00159798
C   -0.38402826   0.56126397   0.51290350
C   -0.44922087  -0.95667609   0.36472724
H   -1.36241559  -1.34474120   0.82199570
H    0.40253762  -1.40379662   0.88269417
C   -0.61160248   0.99172978   1.96170515
O   -0.65168009   2.40183921   2.01769155
H   -0.79380044   2.67647536   2.92880622
H   -1.56000146   0.56836394   2.32579268
H    0.20082377   0.60406664   2.59494123
H   -1.17406233   1.01513291  -0.09345923
H    0.94790558   2.14898305  -0.07983394
H    1.75058680   0.80684345   0.72449463
H    2.10942742   0.92952332  -1.86938873
H    0.98405260  -1.00618882  -2.78388659
H   -1.35485623  -1.06554653  -1.58288846
