23
Energy: 4.901
C   -0.17525051  -1.53519406  -1.53132729
H    0.63186172  -0.82435363  -1.68164460
H   -0.65119307  -1.70954475  -2.49407149
H    0.24087810  -2.48014860  -1.18412264
C   -1.20831782  -1.00323437  -0.53103648
C   -1.80459927   0.27933268  -1.03123184
C   -1.18489833   1.42977645  -0.82908868
C    0.11865620   1.48221235  -0.10114933
C    0.16040369   0.51982871   1.09878414
C   -0.62151128  -0.79306411   0.87657600
H   -1.45810895  -0.81003621   1.57796163
H    0.00928064  -1.65172617   1.12472102
C    1.62586612   0.24801068   1.47809710
O    2.37629975  -0.33125330   0.44200398
H    1.91152578  -1.12194967   0.14195599
H    2.12818930   1.19055270   1.70999709
H    1.65742132  -0.38790390   2.37664284
H   -0.28949908   1.03524087   1.95328160
H    0.32022991   2.49605606   0.24885773
H    0.92816974   1.21536944  -0.78764780
H   -1.59342605   2.36155937  -1.19149799
H   -2.74052923   0.22509034  -1.56665937
H   -1.99724004  -1.75972554  -0.44704917
