23
Energy: 5.276
C    2.12922971  -0.53690786   1.90642301
H    3.15467304  -0.17321431   1.91546152
H    2.13418569  -1.58662094   2.19198839
H    1.55968227   0.01715531   2.64986730
C    1.51146948  -0.36079015   0.52324040
C    1.47995817   1.07436918   0.09456364
C    0.81496631   1.39210474  -1.00492151
C    0.10914857   0.29744277  -1.73940907
C   -0.73318311  -0.52385047  -0.74768918
C    0.08791796  -0.95010519   0.48365552
H    0.15891285  -2.03737938   0.52385855
H   -0.44299951  -0.63237095   1.38148917
C   -1.95132592   0.29991310  -0.31978791
O   -2.77615105  -0.49659015   0.50444770
H   -3.54101574   0.02075995   0.77484558
H   -1.61450159   1.19681481   0.22000764
H   -2.50788027   0.62328374  -1.21231567
H   -1.11461738  -1.41371151  -1.25598512
H    0.84688496  -0.36814897  -2.19778822
H   -0.52577169   0.69287789  -2.53293974
H    0.74763358   2.40345876  -1.37562290
H    2.00042177   1.80559798   0.69397450
H    2.12151872  -0.91419825  -0.20417969
