23
Energy: 5.041
C   -0.61820448  -1.64389289  -2.61011773
H   -0.00974152  -2.45415309  -3.00589660
H   -0.89043106  -0.98570160  -3.43260597
H   -1.53019178  -2.06830215  -2.19469499
C    0.14864584  -0.87752866  -1.53824250
C    0.53907166  -1.74985393  -0.38306427
C    1.05809471  -1.17545513   0.69044631
C    1.26112812   0.30504565   0.67568145
C    0.00195837   1.03548541   0.16782907
C   -0.68976093   0.28814814  -0.98583902
H   -0.92329090   0.98143893  -1.79520869
H   -1.63475748  -0.12916349  -0.62888602
C   -0.97602919   1.22767441   1.33080449
O   -0.39109387   2.08829803   2.28552086
H   -1.00293112   2.20441074   3.01877560
H   -1.91294221   1.66377706   0.95322100
H   -1.20375379   0.24943002   1.77903829
H    0.30436831   2.03473837  -0.15761681
H    2.09175474   0.53938000   0.00245606
H    1.51291239   0.68967707   1.66287590
H    1.34864016  -1.73567209   1.56621370
H    0.36086256  -2.81201233  -0.45188228
H    1.05914696  -0.45833155  -1.98664910
