23
Energy: 4.228
C   -0.36183833  -2.01297986  -2.36381357
H   -1.24712427  -2.63282838  -2.23907871
H    0.50633470  -2.58794948  -2.04792352
H   -0.25396000  -1.77694213  -3.42020465
C   -0.48089929  -0.73414782  -1.54240207
C    0.72453023   0.14498377  -1.68007546
C    0.81893499   1.20564907  -0.89403218
C   -0.29276769   1.45825899   0.07334798
C   -0.61102446   0.17610088   0.86927033
C   -0.68515409  -1.05804044  -0.05029216
H   -1.64469565  -1.56127836   0.07485222
H    0.09448073  -1.76582935   0.24009902
C    0.44917737  -0.05445187   1.95983734
O    0.40985118   0.89099342   2.99985213
H    0.59344615   1.76314050   2.63385389
H    0.26647403  -1.01463176   2.44860959
H    1.44595158  -0.08245284   1.49518642
H   -1.56961787   0.32106885   1.37758136
H   -1.19148666   1.74604965  -0.48196208
H   -0.05574123   2.28122576   0.75013842
H    1.65851547   1.88325205  -0.92354681
H    1.48267826  -0.11983241  -2.40041709
H   -1.35923907  -0.17380788  -1.89056361
