23
Energy: 0.0
C   -1.57829098  -0.50164884   2.43641985
H   -1.70884143   0.55577526   2.65674462
H   -1.33275584  -1.01847067   3.36161950
H   -2.52062841  -0.89443110   2.06104102
C   -0.47078753  -0.69386409   1.40023108
C    0.82988274  -0.14241371   1.90948502
C    1.67926817   0.54884456   1.16864189
C    1.45960807   0.85767212  -0.28097470
C    0.35847082  -0.02106584  -0.87269547
C   -0.84058376  -0.03040772   0.07341049
H   -1.67713044  -0.55393844  -0.39306140
H   -1.15100099   0.99982987   0.26055915
C   -0.04185599   0.46393191  -2.27011787
O   -0.98123853  -0.37561561  -2.89747278
H   -0.61717966  -1.26723463  -2.93674648
H   -0.52594403   1.44135246  -2.20445475
H    0.85845430   0.56508150  -2.89610551
H    0.74055265  -1.04700095  -0.96019609
H    2.39422880   0.71778477  -0.83112671
H    1.18257953   1.91256531  -0.38412042
H    2.59390440   0.93471165   1.59841456
H    1.05026287  -0.34278043   2.94922593
H   -0.34282090  -1.77330901   1.23622591
