23
Energy: 3.559
C    1.69461863  -2.01872852   1.73547564
H    2.74094615  -1.98874340   1.43855537
H    1.23480973  -2.89499038   1.28281916
H    1.64765004  -2.12399385   2.81712375
C    0.97183747  -0.75172991   1.29274048
C   -0.47715326  -0.75944434   1.67943916
C   -1.26829938   0.18153626   1.19038675
C   -0.67518883   1.24907622   0.32769168
C    0.29159270   0.66989088  -0.72644986
C    1.03613934  -0.58166532  -0.23354202
H    2.07823300  -0.54670553  -0.55581584
H    0.58238948  -1.46865653  -0.68248633
C   -0.48977189   0.34060534  -2.00717853
O   -1.09641266   1.46849174  -2.59060162
H   -0.41160548   2.11542958  -2.79434486
H    0.17941816  -0.14924251  -2.73071110
H   -1.30880996  -0.34337169  -1.77308896
H    1.02147768   1.45056006  -0.97575075
H   -0.12089332   1.94265396   0.96876791
H   -1.45227809   1.81752808  -0.18458380
H   -2.32421271   0.22232875   1.40941244
H   -0.83818631  -1.55283347   2.31537593
H    1.46032381   0.11583000   1.75609364
