23
Energy: 0.39
C   -0.98681596  -2.41321277  -1.41089928
H   -1.23260981  -2.58272048  -2.45670315
H   -1.82110072  -2.75525463  -0.80192937
H   -0.11094920  -3.00919485  -1.16246284
C   -0.70932932  -0.93117618  -1.15677950
C    0.44358162  -0.45895100  -1.99420308
C    1.38366744   0.35983489  -1.55484078
C    1.40932979   0.93095623  -0.17076901
C    0.06469415   0.75939145   0.53616900
C   -0.42858029  -0.67239519   0.32478854
H   -1.33972776  -0.85992220   0.89974833
H    0.33897194  -1.36903555   0.67175779
C    0.19824221   1.10561391   2.02505975
O   -1.03700948   1.26751301   2.67797923
H   -1.54339709   0.45303950   2.58615443
H    0.80201327   0.33502737   2.52900650
H    0.70725268   2.06644800   2.13649176
H   -0.66105353   1.45065357   0.09391007
H    1.67652482   1.98964449  -0.21755333
H    2.19348294   0.42881095   0.40746446
H    2.20023219   0.65382807  -2.20032676
H    0.47057018  -0.83049298  -3.00930700
H   -1.60189685  -0.36180805  -1.45159983
