23
Energy: 1.758
C    2.05526837   1.16414007  -1.79089501
H    1.57481181   1.94116064  -2.38158503
H    2.02969816   0.23540057  -2.35684790
H    3.09486645   1.44371506  -1.63370632
C    1.33501172   0.98747856  -0.45374986
C    1.99520209  -0.08591586   0.36222437
C    1.33140496  -0.98741700   1.06516091
C   -0.16103906  -1.04484981   1.14507031
C   -0.80284734   0.24916561   0.64425003
C   -0.14276148   0.66056189  -0.67014436
H   -0.65634063   1.52749223  -1.09192211
H   -0.23674756  -0.16504905  -1.37652218
C   -2.31390204   0.07205239   0.47491943
O   -2.56819473  -0.93848581  -0.47797589
H   -3.51900768  -1.02997622  -0.58942333
H   -2.75921686  -0.19900438   1.44442135
H   -2.75787878   1.02426914   0.14853603
H   -0.64450780   1.04097166   1.38530744
H   -0.46738387  -1.24336921   2.17593513
H   -0.52375900  -1.87489608   0.53144860
H    1.86268439  -1.74720776   1.62300492
H    3.07689644  -0.08766732   0.34982482
H    1.41141719   1.93349763   0.10147552
