23
Energy: 3.823
C    1.63240934   0.95206469  -2.28280535
H    2.29467417   1.49168497  -1.60835886
H    1.35657247   1.61645551  -3.09862139
H    2.17934703   0.10797934  -2.69799955
C    0.38771971   0.47643712  -1.54198925
C   -0.38971315   1.61086796  -0.94544081
C   -1.39482039   1.32227484  -0.13407289
C   -1.72161313  -0.11736702   0.10135569
C   -0.45387095  -0.92581756   0.44426716
C    0.75888030  -0.48735013  -0.40060904
H    1.26454478  -1.35968840  -0.81896562
H    1.47640767   0.03969038   0.23614789
C   -0.14422516  -0.78229620   1.94155162
O    0.88676770  -1.63410320   2.37781789
H    1.67283351  -1.46383242   1.84662966
H    0.09839459   0.26828057   2.16362368
H   -1.01621404  -1.06706491   2.53532613
H   -0.66307339  -1.98411217   0.25822341
H   -2.15357055  -0.53144770  -0.81543756
H   -2.45851843  -0.23297639   0.89614916
H   -1.98899181   2.08050876   0.35169823
H   -0.08784086   2.62226788  -1.16854021
H   -0.25849469  -0.06341963  -2.24670616
