23
Energy: 5.381
C    1.26116282   0.15190245  -2.32308407
H    1.82399785  -0.69453996  -2.71163399
H    1.92397504   0.74310444  -1.69229120
H    0.95310803   0.77009812  -3.16384588
C    0.03850564  -0.33200047  -1.53860885
C   -0.79291813   0.83084521  -1.07936856
C   -1.53806186   0.79151931   0.01217125
C   -1.53903981  -0.41367585   0.89634943
C   -0.12537719  -0.99704393   0.99759117
C    0.45842552  -1.28977477  -0.39541285
H    0.16775610  -2.30356094  -0.67636062
H    1.54838630  -1.28874116  -0.31608377
C    0.79455659  -0.10143959   1.84517371
O    0.96284720   1.21238486   1.38384711
H    1.14567546   1.17879915   0.43782718
H    0.37985629  -0.00397888   2.85268303
H    1.77558613  -0.59880658   1.93192260
H   -0.18034460  -1.94675463   1.54237409
H   -2.20691493  -1.17391645   0.47804051
H   -1.90515431  -0.15812246   1.89142557
H   -2.14719122   1.63289532   0.30462609
H   -0.78148629   1.70319824  -1.71718074
H   -0.58847833  -0.90210041  -2.23821926
