23
Energy: 3.938
C    0.91058708   0.68020853  -2.73791406
H    0.26490901   0.31439411  -3.53358313
H    1.74317183  -0.01225860  -2.62701860
H    1.30618329   1.64883973  -3.03517915
C    0.13706768   0.80145651  -1.42965081
C    0.99442351   1.29819768  -0.30392849
C    0.49624385   1.27883481   0.92289131
C   -0.90717907   0.80033407   1.11604949
C   -1.16004008  -0.52122572   0.35983346
C   -0.45480451  -0.55591477  -1.01021144
H   -1.15295787  -0.89729643  -1.77639489
H    0.36733671  -1.27765263  -0.98507734
C   -0.71382022  -1.70831484   1.22873682
O    0.59188042  -1.58321580   1.73094628
H    1.15817499  -1.24514413   1.02662630
H   -1.35879298  -1.79343109   2.10765656
H   -0.81147880  -2.63813243   0.64483153
H   -2.23938559  -0.62659294   0.21284591
H   -1.59265510   1.55847964   0.72358026
H   -1.13030658   0.66034109   2.17337767
H    1.05951402   1.59804315   1.78560026
H    1.99809282   1.62866276  -0.52295005
H   -0.69504498   1.50319466  -1.57518746
