23
Energy: 0.805
C   -1.40383022  -0.85338738   2.46116498
H   -2.30010726  -1.38396792   2.14773964
H   -1.66368268   0.18866310   2.63564555
H   -1.05792251  -1.28372015   3.39846013
C   -0.32081769  -0.95726678   1.38680428
C    0.91590158  -0.22037298   1.81189139
C    1.63719005   0.53981036   1.00622313
C    1.31126698   0.75857472  -0.43988388
C    0.32254950  -0.29207693  -0.95029955
C   -0.82831126  -0.42635670   0.04552255
H   -1.59072876  -1.09619212  -0.35635543
H   -1.29039643   0.55172465   0.19256745
C   -0.19051835   0.04024709  -2.35939370
O   -1.02364220   1.17136495  -2.41714218
H   -0.53744159   1.92959538  -2.07464828
H    0.66785837   0.16203415  -3.03862964
H   -0.80477673  -0.78409731  -2.72992622
H    0.84525800  -1.25275227  -1.01557117
H    2.23049820   0.73079606  -1.03223325
H    0.88877063   1.76540952  -0.54711873
H    2.51324836   1.05621154   1.37517575
H    1.20561251  -0.34709316   2.84619697
H   -0.05805319  -2.01821196   1.27032575
