23
Energy: 0.153
C   -0.46244340   0.00065866   3.10416056
H   -1.04936769  -0.68664199   3.70933008
H   -0.70219134   1.01772643   3.40677642
H    0.59190009  -0.17930150   3.30342043
C   -0.76214649  -0.19916177   1.61821773
C   -0.42682951  -1.60133630   1.19712087
C    0.17646694  -1.90599709   0.06083598
C    0.59311972  -0.88871690  -0.95451408
C   -0.10084945   0.45271634  -0.71515247
C    0.00511780   0.81316684   0.76487296
H   -0.38707120   1.81782864   0.93937988
H    1.05693015   0.80765354   1.05833454
C    0.50160634   1.54961918  -1.59923644
O    0.40063815   1.26916733  -2.97500983
H   -0.52857703   1.13504559  -3.19300121
H    0.01973337   2.51269203  -1.36959052
H    1.57179915   1.64755296  -1.40100555
H   -1.16334857   0.34720175  -0.97208138
H    0.37250643  -1.25394163  -1.96024218
H    1.67839404  -0.75120967  -0.90014573
H    0.40566397  -2.93547317  -0.17917431
H   -0.71430505  -2.37953646   1.89099528
H   -1.83987048  -0.04565593   1.46566569
