23
Energy: 3.514
C    1.01667866   1.08485850  -2.49084857
H    0.63564893   1.91005614  -3.08874128
H    1.32801532   0.28843185  -3.16357926
H    1.89002465   1.43015523  -1.94144082
C   -0.05362897   0.58570452  -1.52614410
C   -0.50657352   1.65523429  -0.57951228
C   -1.29919654   1.31915639   0.42558693
C   -1.67730119  -0.12013327   0.57291467
C   -0.41452646  -0.99504307   0.48613886
C    0.45627004  -0.63155966  -0.73130334
H    0.52856575  -1.48292118  -1.41060302
H    1.46580288  -0.41284852  -0.37769299
C    0.39350184  -0.83586468   1.78309161
O    1.58703777  -1.58141137   1.78684441
H    1.37107236  -2.50898329   1.63959414
H    0.69888908   0.20608963   1.90244530
H   -0.23266432  -1.11540494   2.64414080
H   -0.72523522  -2.04480526   0.41358398
H   -2.35271004  -0.40400793  -0.24029938
H   -2.19212532  -0.30278676   1.51690428
H   -1.66426159   2.03404603   1.14645215
H   -0.17281042   2.66772035  -0.74576722
H   -0.92686366   0.26181172  -2.10972466
