21
Energy: 0.593
C    0.59828048   0.29180266  -3.31007855
C   -0.71253094  -0.02161154  -2.59723445
C   -0.59263810   0.00657487  -1.07352757
C    0.26787253  -1.12604080  -0.51682466
C    0.28063363  -1.13257410   1.01217914
N    0.88656932   0.06429374   1.55360012
C    0.19840774   0.96294998   2.27854059
O   -0.95780251   0.86510413   2.60370895
H    0.82876385   1.82637645   2.56785760
H    1.84345438   0.25134454   1.29991331
H    0.82713124  -2.00937089   1.37726877
H   -0.73902782  -1.16205404   1.40203758
H   -0.12435997  -2.08442936  -0.86197122
H    1.29351652  -1.03247674  -0.88021281
H   -1.59121840  -0.07064692  -0.63843482
H   -0.17584351   0.96751868  -0.76364417
H   -1.46019857   0.71534877  -2.89830542
H   -1.07169199  -1.00373150  -2.91296824
H    0.43910595   0.34511849  -4.38461511
H    0.99334820   1.24899484  -2.97597505
H    1.34361899  -0.47606230  -3.11889378
