21
Energy: 0.94
C   -0.47573671  -1.28423817   2.80461953
C   -0.56493849  -0.39499271   1.56988575
C    0.52344016   0.67647488   1.57832166
C    0.38339682   1.72218023   0.47115788
C    0.61148389   1.18417336  -0.94291929
N   -0.53379184   0.47383525  -1.46955602
C   -0.45754689  -0.77574428  -1.95725006
O    0.54229509  -1.44679498  -2.01559711
H   -1.44171486  -1.13954463  -2.31102023
H   -1.41863594   0.95519042  -1.45872411
H    1.44575283   0.47988002  -0.95909366
H    0.84686317   2.02005900  -1.61327321
H   -0.60747310   2.18168178   0.52421823
H    1.11950178   2.50898233   0.64852271
H    1.49943725   0.19482541   1.49312884
H    0.49454123   1.19486386   2.54057414
H   -0.46442508  -1.01624922   0.68001973
H   -1.54700118   0.08452548   1.54079051
H    0.49171261  -1.77925185   2.84548330
H   -0.59863402  -0.69620031   3.71208417
H   -1.24976888  -2.04765827   2.78235868
