21
Energy: 1.048
C    1.05002379  -0.75177003  -3.50550971
C    0.17466014  -0.07633730  -2.45630245
C   -0.16048970  -1.02888251  -1.30977598
C   -1.15024400  -0.44920998  -0.29731137
C   -0.63959105   0.78654336   0.44935908
N    0.55111417   0.51593607   1.22487017
C    0.53143898   0.41268360   2.56482228
O   -0.43409856   0.57746136   3.26694136
H    1.53153792   0.16786045   2.97285295
H    1.40090543   0.32467404   0.72024994
H   -1.39859248   1.11709455   1.16189497
H   -0.43452954   1.60051676  -0.25124022
H   -2.07276067  -0.17504739  -0.81237352
H   -1.39317098  -1.21817861   0.43877701
H    0.75989617  -1.32555951  -0.80102276
H   -0.59963898  -1.93667062  -1.73036732
H    0.69591359   0.80344165  -2.07394604
H   -0.75265886   0.26348655  -2.92273235
H    0.54049224  -1.61349656  -3.93087740
H    1.28492696  -0.06036729  -4.31126961
H    1.98404635  -1.09265487  -3.06334756
