21
Energy: 0.0
C   -1.32066298   2.74998605   0.35495888
C   -0.12013589   1.81834861   0.24092587
C   -0.13050666   0.76247648   1.34476932
C    1.13919628  -0.08861884   1.38747000
C    1.35529500  -0.92745809   0.12540897
N    0.25244296  -1.82736876  -0.13004338
C   -0.58021041  -1.67262509  -1.17333490
O   -0.48089710  -0.83102091  -2.03094498
H   -1.38558860  -2.43237138  -1.17459809
H    0.06029417  -2.53148390   0.56439340
H    2.27749539  -1.50992694   0.22681244
H    1.43982228  -0.28566551  -0.75228686
H    2.00799673   0.55945237   1.51601462
H    1.09088210  -0.75614125   2.25261925
H   -0.99964772   0.11430986   1.20913830
H   -0.24047955   1.26032100   2.31175887
H   -0.14506594   1.33189957  -0.73461526
H    0.80069620   2.40281831   0.30809727
H   -1.30318065   3.49199339  -0.43939712
H   -2.24724723   2.18588392   0.27412845
H   -1.31758528   3.26968314   1.31155311
