21
Energy: 0.093
C    3.24325614  -1.17233562  -0.85233418
C    2.48449733   0.14753672  -0.91041476
C    1.01121233  -0.03149254  -0.55265386
C    0.24268265   1.28631958  -0.61433362
C   -1.23548261   1.10834320  -0.26562223
N   -1.42205714   0.66935388   1.09992713
C   -1.94207296  -0.53021555   1.41275013
O   -2.35427556  -1.34349688   0.62489288
H   -1.96653395  -0.69410063   2.50777886
H   -1.06893356   1.26856210   1.82877764
H   -1.68494927   0.33975571  -0.89785214
H   -1.77075119   2.05236634  -0.41662271
H    0.69318511   2.00707580   0.07386258
H    0.31131548   1.70214341  -1.62117035
H    0.93289948  -0.45252140   0.45227139
H    0.55426469  -0.74473572  -1.24132532
H    2.94169385   0.85995591  -0.21916277
H    2.56282050   0.56720017  -1.91601922
H    2.81377429  -1.88864956  -1.54891276
H    4.28921987  -1.02528056  -1.11125842
H    3.19312855  -1.59773964   0.14758414
