21
Energy: 0.462
C   -1.19550675  -2.04989235   1.66331874
C   -1.47923154  -0.90446012   0.69866716
C   -0.98431647   0.45112026   1.20629423
C    0.52208501   0.53263615   1.46175104
C    1.36990217   0.27110143   0.21528901
N    1.08697417   1.21061378  -0.84748937
C    0.49693453   0.84629560  -1.99808528
O    0.19013366  -0.27941319  -2.30282907
H    0.32768982   1.71164541  -2.66750899
H    1.26285262   2.18494778  -0.66109992
H    1.16685281  -0.72136136  -0.18864567
H    2.43212542   0.33492020   0.47613782
H    0.75660097   1.52948173   1.84659354
H    0.80795355  -0.18892159   2.22720974
H   -1.49902633   0.68921762   2.14083752
H   -1.26227462   1.21432187   0.47492410
H   -1.03569063  -1.12140388  -0.27362486
H   -2.55907296  -0.82936886   0.54949518
H   -1.67337793  -2.96087942   1.31115789
H   -0.12881097  -2.24237985   1.74590452
H   -1.58359707  -1.82116309   2.65437248
