21
Energy: 0.448
C    1.60263159  -0.55818508  -3.80595077
C    0.45057789  -0.17545524  -2.88522916
C    0.91333010  -0.00925557  -1.43951194
C   -0.23646809   0.37260405  -0.51122705
C    0.23938106   0.53529156   0.93255701
N   -0.84729653   0.87903359   1.82356785
C   -1.29310515   0.04456189   2.77929061
O   -0.82480574  -1.03388076   3.04263725
H   -2.15515099   0.47151361   3.32742830
H   -1.33111810   1.74539942   1.65005653
H    1.01177159   1.31017861   0.98714008
H    0.65432795  -0.40463044   1.30241090
H   -0.68536599   1.30926630  -0.85346786
H   -1.00687032  -0.40039184  -0.54551029
H    1.68610130   0.76197450  -1.39466547
H    1.35847178  -0.94431330  -1.09364243
H    0.00411493   0.75946942  -3.23210594
H   -0.32104128  -0.94706583  -2.92960763
H    1.25300167  -0.67293502  -4.82912751
H    2.37456503   0.20819311  -3.79083621
H    2.04816970  -1.49801021  -3.48789080
