21
Energy: 1.027
C    0.48583228   1.19586629  -3.10740785
C   -0.73542661   0.32053261  -2.85166794
C   -1.02514541   0.11401803  -1.36425171
C    0.05547740  -0.70063513  -0.65393654
C   -0.33590678  -1.07801007   0.77663294
N   -0.44058594   0.07462984   1.64496888
C    0.46877221   0.34496097   2.59734949
O    1.42325042  -0.33839375   2.86990257
H    0.23445220   1.28473915   3.13425083
H   -1.18931943   0.72374013   1.46796395
H    0.43320009  -1.71823635   1.21427844
H   -1.29087566  -1.61380279   0.77637480
H    0.23458671  -1.62176781  -1.21167090
H    0.98890801  -0.13823054  -0.62018111
H   -1.98142407  -0.40710662  -1.26477321
H   -1.12538006   1.09221469  -0.88788872
H   -1.60819235   0.78851876  -3.31347440
H   -0.59170244  -0.65152272  -3.32851962
H    0.60042256   1.37919819  -4.17320035
H    0.37934511   2.15529684  -2.60545339
H    1.39253106   0.71706019  -2.74786686
