21
Energy: 1.131
C   -2.58391458  -2.68632369   0.13308110
C   -1.06444450  -2.66845265   0.01530762
C   -0.42443831  -1.42598099   0.63738598
C   -0.73567371  -0.14384505  -0.13342808
C   -0.10077677   1.09630785   0.50033113
N    1.34354279   1.09100966   0.41485826
C    2.01978449   1.91079908  -0.40851531
O    1.53002643   2.75426089  -1.11626365
H    3.11195336   1.73528314  -0.35689827
H    1.83971307   0.39476744   0.94624904
H   -0.39745152   1.17252394   1.55155341
H   -0.43045387   1.99244484  -0.02994760
H   -0.37920023  -0.23750349  -1.16103800
H   -1.81398418   0.01279429  -0.16318507
H    0.65768360  -1.57705773   0.66346258
H   -0.77224891  -1.32186863   1.66839541
H   -0.66368709  -3.55256410   0.51701980
H   -0.78070420  -2.72970471  -1.03755562
H   -2.88639771  -2.58479319   1.17319543
H   -3.03215845  -1.87740622  -0.43747126
H   -2.97847190  -3.62547375  -0.24754321
