21
Energy: 1.049
C   -0.44493994   3.62298122   0.82966909
C    0.34611053   2.32142576   0.77031600
C   -0.52698461   1.11916473   1.12608727
C    0.24772672  -0.19662152   1.22189700
C    0.88684423  -0.65099343  -0.09351623
N   -0.09046278  -0.89541673  -1.13162391
C   -0.43170431  -2.13498903  -1.52343782
O    0.05226891  -3.15892920  -1.11147441
H   -1.21797790  -2.11776785  -2.30321099
H   -0.57659337  -0.09907244  -1.50959647
H    1.40547345  -1.59901641   0.06566849
H    1.60783261   0.09128104  -0.44648565
H    1.04075655  -0.09366092   1.96484602
H   -0.43030216  -0.98191700   1.56215772
H   -1.33223636   1.02350140   0.39373640
H   -0.99671366   1.30643274   2.09464802
H    0.75785929   2.20308693  -0.23385707
H    1.18406391   2.37502453   1.46883126
H   -1.28241756   3.59433200   0.13549779
H   -0.83813690   3.78582298   1.83067801
H    0.18760408   4.46800128   0.56833129
