21
Energy: 0.573
C    1.52440160   3.15746754   1.84765925
C    1.04667487   1.71722309   1.98705173
C    0.19747935   1.28240968   0.79439429
C   -0.27464279  -0.16403176   0.93119808
C   -1.20789147  -0.59694839  -0.20184489
N   -0.53877016  -0.65085164  -1.48337365
C   -0.24690512  -1.81124150  -2.09629082
O   -0.53698804  -2.90939893  -1.69374293
H    0.29330520  -1.64800493  -3.04906642
H   -0.22709808   0.21896405  -1.88288751
H   -2.05787739   0.08991701  -0.26977815
H   -1.57825150  -1.60658635  -0.01126531
H    0.58815316  -0.83239378   0.95344686
H   -0.81034410  -0.27838251   1.87536739
H    0.78927647   1.39558199  -0.11713024
H   -0.67127586   1.94101364   0.71365513
H    1.91049397   1.05458049   2.07383992
H    0.45971491   1.61657699   2.90257982
H    0.67689638   3.83592289   1.77627947
H    2.12301448   3.44653234   2.70798328
H    2.13237896   3.27440715   0.95297590
