21
Energy: 0.573
C    3.90126464  -0.71517526  -0.07064573
C    2.73679067   0.02184558  -0.72085809
C    1.51023878   0.06073096   0.18835592
C    0.34162950   0.79558867  -0.46599002
C   -0.86839471   0.93685617   0.46025837
N   -1.48850150  -0.33468623   0.76288484
C   -2.68556231  -0.69003201   0.26477710
O   -3.38786058  -0.00157880  -0.43160373
H   -2.97643795  -1.71004449   0.58291079
H   -0.95950687  -0.99154480   1.31245730
H   -1.63826745   1.54065913  -0.02508910
H   -0.56912394   1.42172696   1.39531268
H    0.66573096   1.79649557  -0.75698492
H    0.03475514   0.26753411  -1.37075628
H    1.77357108   0.56013985   1.12444323
H    1.21803836  -0.96478696   0.42678276
H    3.04123341   1.04352371  -0.95818196
H    2.47325784  -0.47082520  -1.65929030
H    4.76348808  -0.72736629  -0.73282831
H    4.18988142  -0.22900513   0.85887555
H    3.62663595  -1.74403399   0.15249870
