21
Energy: 0.97
C   -2.78988527   2.02364128  -0.48437613
C   -2.83278182   0.60664605  -1.04427030
C   -1.84905842  -0.34187258  -0.35804977
C   -0.38781551   0.00667497  -0.63129262
C    0.55252887  -1.02958856  -0.01523251
N    1.94275222  -0.69659553  -0.23823705
C    2.77211215  -0.34004084   0.75840314
O    2.48771110  -0.30539510   1.92874792
H    3.78174540  -0.08631171   0.38122579
H    2.26152559  -0.65704615  -1.19298964
H    0.34595234  -2.02067483  -0.43387020
H    0.41545893  -1.06737772   1.06748423
H   -0.22075460   0.05236041  -1.71113014
H   -0.15126203   0.98411390  -0.20958289
H   -2.03879651  -1.35903512  -0.71035095
H   -2.02592229  -0.32687175   0.71917142
H   -3.84191490   0.20834058  -0.91656706
H   -2.62236264   0.63246314  -2.11606358
H   -3.56718882   2.63227452  -0.94071091
H   -2.95127695   2.01171050   0.59115305
H   -1.83162546   2.49584531  -0.68368997
