21
Energy: 1.131
C   -1.86334760  -1.05055111  -3.05300310
C   -0.78687039  -1.68804382  -2.18244316
C   -0.80813773  -1.19319624  -0.73504970
C   -0.38639532   0.26899517  -0.59754872
C   -0.41433699   0.75897253   0.85225366
N    0.59123871   0.12457310   1.67677818
C    1.68666988   0.77529436   2.10567012
O    1.93552831   1.93730706   1.90572803
H    2.35263722   0.11478736   2.69433376
H    0.48595735  -0.85802118   1.86839529
H   -1.40190615   0.57869125   1.28925595
H   -0.19893914   1.82924919   0.88455510
H    0.62202855   0.39917464  -0.99500955
H   -1.06111732   0.90069196  -1.17541510
H   -0.13015892  -1.82025558  -0.15050375
H   -1.81464532  -1.31948436  -0.32790247
H   -0.93349881  -2.77082355  -2.18051978
H    0.19585013  -1.48910151  -2.61542690
H   -1.69755257   0.01757733  -3.16434637
H   -1.85701328  -1.49722987  -4.04448053
H   -2.84746501  -1.20386469  -2.61520372
