21
Energy: 0.574
C   -3.61794262   1.21421688  -1.04732866
C   -2.58489818   1.13172422   0.06979387
C   -1.18995390   0.82017081  -0.46834948
C   -0.15793887   0.72067234   0.65357564
C    1.26612088   0.50331339   0.13668889
N    1.43476094  -0.78268206  -0.50428868
C    2.12083405  -1.78814864   0.06653914
O    2.70240082  -1.73074217   1.12038100
H    2.10906230  -2.70114748  -0.56002408
H    0.95177404  -0.93614385  -1.37405305
H    1.96943739   0.51991102   0.97208479
H    1.53213037   1.29421507  -0.57211078
H   -0.17133800   1.64364404   1.23621775
H   -0.41996994  -0.10089897   1.32290449
H   -0.89118183   1.60605230  -1.16704650
H   -1.22990625  -0.12165276  -1.02089670
H   -2.55853665   2.08025450   0.61053996
H   -2.87812975   0.35490879   0.77932359
H   -3.67620898   0.27028966  -1.58528097
H   -4.60176843   1.43826542  -0.64244067
H   -3.35286099   1.99590895  -1.75609588
