21
Energy: 0.908
C    0.91682821   3.86572749  -0.31970182
C    0.11063611   2.58143696  -0.47289561
C    1.02183680   1.37232262  -0.67638910
C    0.26320558   0.07646948  -0.96117943
C   -0.53910006  -0.41937279   0.24320062
N   -1.13337001  -1.71461820  -0.01020696
C   -0.73652166  -2.83122158   0.62518783
O    0.09423522  -2.88445411   1.49635818
H   -1.28153168  -3.72479826   0.26401078
H   -1.80656573  -1.77625536  -0.75696998
H   -1.33084971   0.29154974   0.49656561
H    0.11799496  -0.54659478   1.10610425
H   -0.40966953   0.22719881  -1.80984840
H    0.98025571  -0.70060209  -1.23524948
H    1.64566402   1.23568375   0.20913585
H    1.68613943   1.57563222  -1.51969712
H   -0.50165061   2.43870981   0.41883884
H   -0.56095142   2.67605081  -1.32965262
H    1.51754819   4.04851513  -1.20804577
H    0.25681462   4.71701648  -0.17079438
H    1.58484989   3.79549362   0.53574344
