21
Energy: 0.592
C   -1.97876393   0.37295041   2.72095087
C   -0.87253302   1.28395095   2.20049597
C   -0.15423712   0.72136112   0.97398033
C   -1.04139377   0.66239194  -0.26813670
C   -0.26130016   0.21421149  -1.50450618
N    0.24541940  -1.13369085  -1.36623261
C    1.55910598  -1.41472356  -1.32165064
O    2.45240207  -0.61467617  -1.43999927
H    1.74275751  -2.49678363  -1.17342943
H   -0.42972643  -1.86701933  -1.22002134
H    0.61037144   0.85388741  -1.65812181
H   -0.90335068   0.26826504  -2.39085213
H   -1.87312411  -0.02604084  -0.10368138
H   -1.45840045   1.65181143  -0.46469891
H    0.21905063  -0.27920375   1.20359367
H    0.71147972   1.34897407   0.75244180
H   -1.29305009   2.26188655   1.95543357
H   -0.13672238   1.43092217   2.99408001
H   -1.58661371  -0.62015445   2.93042974
H   -2.39626599   0.77560768   3.64093298
H   -2.78550384   0.28130615   1.99814498
