21
Energy: 1.432
C   -1.12406591   1.79254565   1.19648097
C    0.26498601   2.27186050   0.79114265
C    1.08564254   1.22615408   0.03435502
C    1.42358864  -0.02627307   0.85203734
C    0.42066678  -1.16675223   0.65656553
N    0.41012867  -1.64721528  -0.70815318
C   -0.63537215  -1.46392292  -1.53232969
O   -1.68199689  -0.94410206  -1.23490523
H   -0.43653624  -1.86474053  -2.54528720
H    1.26376454  -2.04577971  -1.06526418
H   -0.59507603  -0.83408983   0.86764360
H    0.67268140  -1.99743611   1.32495940
H    2.41302994  -0.39287748   0.56458350
H    1.46435890   0.22446106   1.91294460
H    2.01627489   1.70045650  -0.28657531
H    0.54160527   0.93360478  -0.86570784
H    0.16017722   3.14578098   0.14360811
H    0.81629310   2.58828192   1.68062347
H   -1.72037244   2.63185367   1.54809484
H   -1.63463758   1.33974664   0.34968650
H   -1.06707861   1.06424247   2.00183467
