21
Energy: 1.027
C    2.42277886  -0.29744074  -2.32721856
C    1.57610457  -1.52149297  -1.99879917
C    0.75153098  -1.35602394  -0.72141973
C   -0.33591915  -0.28941717  -0.84771349
C   -1.29075532  -0.27659947   0.34816081
N   -0.63800988   0.12795829   1.57441460
C   -0.86165517   1.32168541   2.15062934
O   -1.64016339   2.15438637   1.75966820
H   -0.24632890   1.46028985   3.06084475
H    0.05768962  -0.49092536   1.95688435
H   -1.73155863  -1.26925747   0.48775709
H   -2.08959507   0.44830595   0.17693693
H    0.11561202   0.69862447  -0.94073384
H   -0.92215869  -0.48042319  -1.74852693
H    1.42571078  -1.10298942   0.10033688
H    0.27955088  -2.31383112  -0.48526477
H    0.90575671  -1.73408770  -2.83449311
H    2.23527185  -2.38444271  -1.87710534
H    3.07017184  -0.04552555  -1.48982648
H    3.04817068  -0.49471525  -3.19476351
H    1.79708071   0.56235135  -2.55056986
