21
Energy: 0.97
C   -3.45160181  -0.44889906  -0.18343660
C   -2.89538740   0.33337577   1.00055146
C   -1.50895852   0.92150717   0.73557013
C   -0.42213946  -0.14134446   0.59219979
C    0.95822365   0.49700003   0.43522139
N    1.99679447  -0.49701167   0.27220948
C    2.68727033  -0.64428455  -0.87220735
O    2.56910016   0.04174921  -1.85571747
H    3.40994413  -1.48087585  -0.81075053
H    2.13954310  -1.14518987   1.02995443
H    1.18595056   1.11910191   1.30784992
H    0.98648780   1.12077461  -0.46064325
H   -0.42575328  -0.78618515   1.47551287
H   -0.61915825  -0.76250534  -0.28216428
H   -1.24468246   1.58355744   1.56417624
H   -1.54158534   1.52604186  -0.17292905
H   -3.57911691   1.15304314   1.23292201
H   -2.85085305  -0.31668161   1.87755567
H   -2.85381177  -1.33366980  -0.38538151
H   -4.47010820  -0.76979839   0.02273345
H   -3.46207605   0.17134452  -1.07684129
