21
Energy: 0.807
C   -3.02148975   1.11781078   2.06243419
C   -1.89327208   0.86286599   1.06999131
C   -1.73455525  -0.62761376   0.77655130
C   -0.69411972  -0.92624666  -0.30222936
C    0.73195008  -0.60250595   0.14580648
N    1.70334331  -0.97346582  -0.86039878
C    2.43239892  -0.06535421  -1.53257509
O    2.41164466   1.12533635  -1.34860547
H    3.08709087  -0.54176059  -2.28773313
H    1.75838987  -1.94673273  -1.11465798
H    0.95819106  -1.12918002   1.07941944
H    0.85437049   0.47017282   0.30148488
H   -0.74725063  -1.98783432  -0.56103898
H   -0.92302454  -0.35084568  -1.20142079
H   -2.69827240  -1.02300473   0.44653287
H   -1.46202230  -1.15110789   1.69621895
H   -2.10314493   1.39213802   0.13829078
H   -0.96335789   1.26162906   1.47711779
H   -3.11964473   2.18161802   2.26413531
H   -3.96832639   0.75467046   1.66824418
H   -2.82506038   0.60731022   3.00288238
