21
Energy: 0.576
C    2.78152498  -0.47131174  -2.19086036
C    1.26109494  -0.41083840  -2.28216145
C    0.59960928   0.07487098  -0.99244417
C    0.75473328  -0.90437739   0.16936844
C   -0.01517947  -0.44505490   1.40825345
N   -1.44408851  -0.42413423   1.18399571
C   -2.16853491   0.70784720   1.21266679
O   -1.74448430   1.80626133   1.46908820
H   -3.23482560   0.51879349   0.98054650
H   -1.88234452  -1.29352004   0.92493567
H    0.26763165   0.57546134   1.67470985
H    0.20649295  -1.10807894   2.25205232
H    0.39618597  -1.89227389  -0.13353851
H    1.80633275  -0.99816920   0.44073749
H   -0.46496967   0.23199698  -1.18180577
H    1.02526702   1.03877696  -0.70719669
H    0.98432765   0.27035789  -3.08985611
H    0.87336014  -1.39995422  -2.53834716
H    3.20645243  -0.73626646  -3.15635362
H    3.18214890   0.49541126  -1.89427324
H    3.10243203  -1.21505422  -1.46609084
