21
Energy: 1.131
C   -1.54989041  -3.27261037  -0.87463522
C   -1.74151216  -2.26213307   0.25020677
C   -0.48457971  -1.44233364   0.54731713
C   -0.12106305  -0.47676286  -0.57973967
C    1.13708216   0.34039054  -0.27603923
N    0.94756676   1.27618259   0.81112128
C    0.84751657   2.60184922   0.61105202
O    0.94875603   3.16038247  -0.45191973
H    0.67150231   3.14804870   1.55815982
H    0.81625711   0.89841063   1.73487831
H    1.40603975   0.94136204  -1.14749920
H    1.96829968  -0.32889030  -0.03153913
H    0.05893839  -1.03632032  -1.49772596
H   -0.95212587   0.20816668  -0.75871979
H    0.35270567  -2.12190109   0.72596233
H   -0.65670574  -0.87554478   1.46582480
H   -2.55966183  -1.58506636  -0.00479646
H   -2.02790408  -2.79843729   1.15811006
H   -1.36131671  -2.77517232  -1.82214481
H   -0.71140403  -3.93074671  -0.65675588
H   -2.44307509  -3.88271271  -0.98676519
