21
Energy: 1.454
C   -2.99994062  -1.06186178   1.23535519
C   -2.04758732  -0.00922300   1.79110321
C   -1.57782195   0.99858067   0.74037368
C   -0.79815087   0.39644602  -0.42902409
C    0.50484578  -0.27448755   0.00791673
N    1.30951077  -0.66457368  -1.13048645
C    2.48941836  -0.08696917  -1.41663352
O    3.03492603   0.75902996  -0.75426706
H    2.93068368  -0.49381088  -2.34715468
H    0.91333458  -1.33554978  -1.76887751
H    0.29721233  -1.16010077   0.61561055
H    1.11190140   0.42354042   0.58836525
H   -1.42153310  -0.32512554  -0.96113021
H   -0.55110774   1.19914390  -1.12776707
H   -0.94894359   1.74508278   1.23027380
H   -2.45207708   1.51603476   0.33805738
H   -2.55983502   0.54477105   2.58112975
H   -1.18571683  -0.49901319   2.24681438
H   -2.49601146  -1.71640419   0.52877562
H   -3.39202249  -1.67745275   2.04165975
H   -3.83786753  -0.58737209   0.72904505
