21
Energy: 0.573
C   -0.70958162   2.40662690  -3.06369108
C   -1.25906002   1.79076060  -1.78277802
C   -0.14927773   1.20512133  -0.91214141
C   -0.70190432   0.58276375   0.36887072
C    0.39515980   0.07455303   1.30722431
N    1.12632611  -1.04443954   0.75375593
C    0.97694406  -2.29994506   1.21075337
O    0.27987769  -2.63113818   2.13624885
H    1.59319088  -3.02108219   0.63936992
H    1.70747821  -0.86957517  -0.04936022
H   -0.05083916  -0.28534272   2.23696198
H    1.09701226   0.88326354   1.53544470
H   -1.28951788   1.32974354   0.90578518
H   -1.36510778  -0.24732474   0.11847511
H    0.55941580   1.99644971  -0.65408620
H    0.38822979   0.44975600  -1.49043107
H   -1.79695880   2.55330786  -1.21531304
H   -1.97173796   1.00254977  -2.03505596
H   -0.00925821   3.20667948  -2.83316566
H   -0.18945997   1.65709358  -3.65650716
H   -1.51541214   2.81968760  -3.66542764
