21
Energy: 0.996
C    0.78421369   1.26212465  -3.40274666
C    0.02074568   1.97168202  -2.29029960
C   -0.73986211   1.01342170  -1.37296391
C    0.17821261   0.13127622  -0.52999499
C   -0.62559151  -0.73546145   0.43960999
N    0.23065936  -1.57100793   1.25327673
C    0.35194200  -1.40869516   2.58261977
O   -0.25401424  -0.60894712   3.24966130
H    1.08126505  -2.11916772   3.01779080
H    0.80846072  -2.24450015   0.77651861
H   -1.32627438  -1.36759816  -0.11694993
H   -1.18974912  -0.10759869   1.13242633
H    0.77120363  -0.51664146  -1.17900531
H    0.86467312   0.75953341   0.04127746
H   -1.39498181   0.38088964  -1.97672663
H   -1.37201559   1.59861724  -0.70159116
H    0.71626728   2.56541340  -1.69340928
H   -0.69743905   2.66002040  -2.74137807
H    0.11417038   0.62846587  -3.98002641
H    1.23026621   1.99026965  -4.07613910
H    1.58247337   0.64447796  -2.99954746
