21
Energy: 1.069
C   -2.40807619   0.88258406   1.74792556
C   -1.75403808   0.52999129   0.41740588
C   -0.64174980   1.51709733   0.06650849
C    0.01356993   1.25482640  -1.29288606
C    1.13385928   0.21383546  -1.25203878
N    0.66801472  -1.11643629  -0.93037174
C    1.08753772  -1.78784912   0.15601354
O    1.89313435  -1.38993325   0.95912738
H    0.60475587  -2.78138514   0.23732952
H   -0.02325082  -1.52407944  -1.53935535
H    1.86398375   0.47423904  -0.48261304
H    1.64066038   0.18939575  -2.22426181
H   -0.74728325   0.94467877  -2.01394655
H    0.45549147   2.18294730  -1.66034459
H    0.12296344   1.48748355   0.84469897
H   -1.06891065   2.52294241   0.06163979
H   -1.34870340  -0.48048675   0.48046769
H   -2.51034857   0.54248784  -0.37232650
H   -3.21022321   0.18482564   1.97707434
H   -1.67609757   0.83976800   2.55107425
H   -2.82480945   1.88721696   1.71647327
