21
Energy: 0.996
C    2.51679636  -0.09255906   2.72421398
C    2.55568232  -0.81764831   1.38382783
C    1.83960443  -0.05949676   0.26548502
C    0.32852629   0.02528018   0.46801895
C   -0.35218574   0.69955822  -0.72344773
N   -1.78660967   0.77858489  -0.55146891
C   -2.64829769   0.08717827  -1.31807690
O   -2.34925037  -0.61913683  -2.24730266
H   -3.69785949   0.25056246  -1.00546378
H   -2.13021044   1.31401420   0.22956631
H   -0.18361582   0.12128450  -1.63429886
H    0.05200516   1.70809343  -0.86361100
H   -0.08075735  -0.97992647   0.58785291
H    0.10528301   0.59303589   1.37380471
H    2.03539782  -0.56574599  -0.68225781
H    2.25218238   0.94964213   0.19302537
H    3.59855678  -0.95921414   1.09150553
H    2.10658424  -1.80711021   1.49259727
H    2.91802136   0.91381206   2.62436680
H    1.50095335  -0.02372525   3.10447066
H    3.11483589  -0.62733638   3.45837924
