21
Energy: 0.908
C    0.44235140  -0.10022901  -3.95816255
C   -0.24332575  -0.24055751  -2.60427997
C    0.22945106   0.83313771  -1.62587928
C   -0.51349277   0.81323692  -0.29037822
C   -0.20475055  -0.43247436   0.54201100
N   -0.80757071  -0.35745414   1.85576902
C   -0.08122372  -0.23950492   2.98113589
O    1.12223074  -0.23758649   3.04181588
H   -0.72474176  -0.15666332   3.87833049
H   -1.81260520  -0.30759353   1.90115753
H    0.87182477  -0.51990150   0.70297552
H   -0.56612312  -1.33226013   0.03566779
H   -0.22184638   1.69131116   0.29021228
H   -1.59022897   0.87257975  -0.47146839
H    0.08356315   1.81265129  -2.08746077
H    1.29885269   0.71087120  -1.44312973
H   -1.32483747  -0.15793142  -2.73642807
H   -0.02976524  -1.23105471  -2.19961458
H    1.52068573  -0.19083522  -3.84898685
H    0.10065178  -0.87287307  -4.64281786
H    0.22406368   0.87003026  -4.39905455
