21
Energy: 1.093
C   -0.50252442   2.11744999   1.73415811
C    0.96554633   1.82831785   1.44370844
C    1.36379534   0.37764814   1.72279569
C    0.56106319  -0.66679655   0.94716115
C    0.69372387  -0.51328744  -0.56862922
N   -0.01403190  -1.56020835  -1.27433802
C   -1.18250441  -1.33841524  -1.90166287
O   -1.72701337  -0.26852778  -2.00920756
H   -1.59757690  -2.26644051  -2.34006045
H    0.33101533  -2.50175201  -1.17864251
H    1.74898920  -0.53291182  -0.85926403
H    0.24720019   0.42591691  -0.89785985
H    0.91639846  -1.66087297   1.23441160
H   -0.49338257  -0.60249501   1.21764834
H    1.23843181   0.17882137   2.78989285
H    2.42435119   0.25555858   1.48767213
H    1.18637438   2.07978462   0.40531298
H    1.58607412   2.47200055   2.07222859
H   -0.69670748   3.18430334   1.65229665
H   -1.15064376   1.60482530   1.02860066
H   -0.76222276   1.79901574   2.74172223
