25
Energy: 1.653
C    2.26506760   1.25752816   2.20323154
H    2.54430970   0.22358683   2.38941954
H    3.00918272   1.69557653   1.54204289
H    2.27606235   1.79938909   3.14596085
C    0.88275441   1.32875097   1.56308395
H    0.65372765   2.36708410   1.32831803
H    0.13120695   0.96321289   2.26911200
C    0.81413517   0.47804529   0.28447796
O    1.21468559  -0.84560710   0.56446094
H    0.58624372  -1.21566995   1.19664771
H    1.55996549   0.84531984  -0.43044079
C   -0.58117747   0.51552054  -0.37743109
C   -0.99533529   1.94331655  -0.73296646
H   -1.13203061   2.55159042   0.15621455
H   -1.93843252   1.93741519  -1.27574996
H   -0.24144682   2.41029292  -1.36321603
C   -0.61995414  -0.36032866  -1.64214230
C   -0.84460237  -1.84802607  -1.35398703
O   -1.99020067  -2.08635779  -0.56583707
H   -2.75789583  -1.73016914  -1.02731202
H   -0.00659254  -2.25896529  -0.79139450
H   -0.91950154  -2.38953140  -2.30872477
H   -1.43441875  -0.01098380  -2.28415702
H    0.31240759  -0.25360636  -2.19760242
H   -1.30635438   0.10537745   0.33689298
