25
Energy: 0.436
C    0.35050047  -2.22236089   2.34151883
H    0.05760512  -3.02364232   1.66724116
H    0.97394751  -2.64144927   3.12745839
H   -0.54952948  -1.81015844   2.79148270
C    1.10673957  -1.13946372   1.58008995
H    1.96669746  -1.58195727   1.07898308
H    1.47759902  -0.38674149   2.28284904
C    0.20689767  -0.44678581   0.54908634
O   -0.89694083   0.15786116   1.20128159
H   -0.56226434   0.80863326   1.82888584
H   -0.24132979  -1.20617159  -0.10035814
C    0.98874296   0.57054691  -0.31219093
C    1.92150500  -0.14093146  -1.29181212
H    2.44515839   0.59044228  -1.90285778
H    1.36323335  -0.79973907  -1.95179946
H    2.66582971  -0.73430451  -0.76808367
C    0.06292718   1.54609765  -1.06561056
C   -1.05266632   0.89494361  -1.89535536
O   -2.26112515   0.75800450  -1.19310705
H   -2.05611500   0.42085041  -0.30668983
H   -0.72196341  -0.08090122  -2.28111033
H   -1.28716690   1.52934380  -2.75512342
H   -0.41497258   2.22714330  -0.35749731
H    0.69000674   2.15038951  -1.72356927
H    1.60667197   1.17727520   0.36387468
