25
Energy: 1.088
C    0.77317465  -0.60134900  -2.75468989
H    0.50180497   0.23157761  -3.40034343
H    1.74863205  -0.39706586  -2.32046767
H    0.85744117  -1.49528296  -3.36744957
C   -0.28120292  -0.81280551  -1.67688220
H    0.02302247  -1.61269567  -1.00230662
H   -1.22010793  -1.12038079  -2.14188663
C   -0.58614417   0.45096852  -0.86672964
O   -1.71831127   0.14892844  -0.06436342
H   -1.96578652   0.93815660   0.42924822
H   -0.86864681   1.24863968  -1.57625856
C    0.60814606   0.99007522  -0.04838967
C    0.20970243   2.26097299   0.70876025
H   -0.49134012   2.05284703   1.51471449
H   -0.24495521   2.98175910   0.03065872
H    1.09065343   2.72025992   1.15073921
C    1.29490726  -0.02459289   0.88281493
C    0.45318976  -0.63397119   2.01360188
O   -0.42749464  -1.64122454   1.59717090
H   -1.06619578  -1.23723061   0.98314207
H   -0.08762039   0.15522539   2.55645347
H    1.13246226  -1.11653810   2.72286827
H    1.69421264  -0.84720765   0.28781848
H    2.14326697   0.48672934   1.34437535
H    1.35990366   1.28379519  -0.78970845
