25
Energy: 1.47
C    2.95760596  -1.52949728  -0.30412332
H    3.91362649  -1.60508704   0.20959732
H    2.67002897  -2.52362640  -0.63836227
H    3.08806499  -0.89903734  -1.17935565
C    1.90039701  -0.96305884   0.63647025
H    2.22387440   0.00696245   1.02079000
H    1.80221186  -1.63915140   1.48941472
C    0.50639923  -0.83598765  -0.01166405
O   -0.48749096  -1.36135760   0.84731832
H   -0.56640644  -0.76392685   1.60290262
H    0.46339022  -1.47395590  -0.90181538
C    0.15247152   0.61350219  -0.40673999
C    1.12888793   1.17998820  -1.43315815
H    2.13917421   1.21899542  -1.03586155
H    0.83613910   2.19214228  -1.70420339
H    1.13082611   0.56835045  -2.33296852
C   -1.29594365   0.68912048  -0.93158181
C   -2.22799708   1.44258821   0.01985448
O   -2.31382798   0.84649022   1.29283646
H   -2.55881025  -0.07941752   1.16849572
H   -3.22835914   1.51585760  -0.43297038
H   -1.85707727   2.45595761   0.19468684
H   -1.32091197   1.19100771  -1.89932944
H   -1.68616468  -0.32216455  -1.07030395
H    0.21622274   1.21984174   0.50567137
