25
Energy: 0.412
C   -2.43328597   1.94734901   1.65075543
H   -2.45667330   2.84899403   2.25806033
H   -2.88258223   2.16392345   0.68466354
H   -3.03352596   1.18369677   2.13983700
C   -0.99940592   1.45925405   1.47399050
H   -0.59244465   1.18228433   2.44541761
H   -0.38343574   2.26501614   1.06332974
C   -0.92911540   0.25381420   0.52833919
O   -1.51215700   0.56865853  -0.72153070
H   -1.02279659   1.31261185  -1.09337463
H   -1.55048724  -0.55656083   0.92599098
C    0.51134570  -0.26238489   0.32222751
C    1.19886264  -0.63134961   1.63345483
H    2.13866666  -1.13809371   1.42748818
H    0.56921339  -1.29980516   2.21733789
H    1.41993302   0.24983489   2.22925177
C    0.49185889  -1.46800465  -0.63074512
C    1.75522076  -1.54131411  -1.48802650
O    1.89185302  -0.42502351  -2.33716383
H    1.09247993  -0.35569427  -2.87217960
H    1.74742826  -2.47014955  -2.07751283
H    2.65088663  -1.53980540  -0.86278900
H    0.38612338  -2.39257411  -0.06182955
H   -0.37266309  -1.38012248  -1.29481491
H    1.08318439   0.53783989  -0.16495695
