25
Energy: 1.715
C   -0.41588428   2.15319919   2.08342435
H   -1.47143284   1.89667033   2.03949600
H   -0.03099443   1.84858538   3.05420287
H   -0.31204497   3.23214428   1.99199008
C    0.33663347   1.44216054   0.96491333
H    1.40694084   1.63763183   1.05750078
H   -0.00341055   1.82819459   0.00362080
C    0.09447634  -0.07522930   1.01140885
O   -1.26549946  -0.38281568   0.85167532
H   -1.54032778  -0.01501040  -0.00156656
H    0.33988887  -0.42144109   2.02314637
C    1.00309605  -0.84732239   0.01204737
C    1.40235788  -2.19146150   0.62381095
H    0.51135384  -2.77287757   0.84791591
H    1.95736933  -2.04102653   1.54665761
H    2.02682162  -2.76072623  -0.06178366
C    0.34931461  -1.11467957  -1.35107672
C    0.05854597   0.11469215  -2.20954687
O   -1.15579874   0.71825234  -1.79570115
H   -1.35981335   1.45884908  -2.37488675
H   -0.03226609  -0.19727278  -3.25931004
H    0.88707856   0.83346880  -2.13562189
H    1.02367522  -1.75759281  -1.92023171
H   -0.58487982  -1.65890477  -1.20217016
H    1.91041066  -0.25484268  -0.14890808
