25
Energy: 1.552
C    1.45038933   0.44470405   2.51510346
H    0.88706022  -0.42491555   2.84150356
H    2.27562770   0.10268743   1.89458644
H    1.85875267   0.93748546   3.39440267
C    0.56882473   1.41172040   1.73176902
H    1.12960710   2.33631547   1.55555038
H   -0.31453344   1.68035095   2.30954582
C    0.14620569   0.86491546   0.35884531
O    1.31016207   0.62645088  -0.42196833
H    1.86414046   1.41438958  -0.39722548
H   -0.46748580   1.63761463  -0.13670419
C   -0.67059802  -0.44111948   0.40292773
C   -1.78386713  -0.35882874   1.44900775
H   -2.43594343   0.48702192   1.24076861
H   -1.39035758  -0.25612068   2.45541952
H   -2.38350816  -1.26554406   1.42007175
C   -1.31360661  -0.77842643  -0.95541886
C   -0.38492356  -1.38807616  -2.01565171
O    0.34974298  -0.44365816  -2.74418563
H    0.88438195   0.04249813  -2.09486504
H   -0.99180067  -1.91798967  -2.75570062
H    0.28726349  -2.11652048  -1.53712098
H   -2.10756332  -1.50520942  -0.77286206
H   -1.77601295   0.11690804  -1.37694160
H    0.01669941  -1.24967170   0.66997699
