25
Energy: 1.264
C   -0.28681401  -2.33834421  -1.71888723
H   -0.99668001  -2.69695494  -2.46040045
H    0.69870981  -2.72373586  -1.97334793
H   -0.57435910  -2.74167196  -0.75192262
C   -0.27746384  -0.81513470  -1.70276818
H   -1.25103431  -0.43302746  -1.39245125
H   -0.09548022  -0.45573040  -2.72157083
C    0.81175318  -0.22265606  -0.79898593
O    0.83646655   1.19472196  -0.92621283
H    0.91587000   1.41854025  -1.85939137
H    1.78814669  -0.61173289  -1.13718068
C    0.68601426  -0.60071970   0.69142585
C    1.78450662   0.10428977   1.48879760
H    1.71087777   1.18106673   1.37193212
H    2.76439298  -0.20790229   1.13394506
H    1.70295471  -0.14422437   2.54403782
C   -0.69896026  -0.40296148   1.33301342
C   -1.20192554   1.03646167   1.50184723
O   -1.58337279   1.64942971   0.29974755
H   -0.78045644   1.69319552  -0.24841537
H   -0.44534825   1.64063551   2.02054454
H   -2.10271128   1.01615643   2.12309046
H   -1.44658689  -0.95642109   0.76267894
H   -0.65408068  -0.84866444   2.32980863
H    0.88478397  -1.67810994   0.73588706
