25
Energy: 0.835
C    0.08540360   0.74279577  -3.01378760
H    0.98373756   1.31092058  -2.78820119
H    0.36156876  -0.11757618  -3.62034758
H   -0.58771658   1.37102181  -3.59144286
C   -0.58596800   0.29805363  -1.71993178
H   -1.47015324  -0.30041491  -1.94642514
H   -0.89510519   1.17912274  -1.15801775
C    0.36243202  -0.53640279  -0.85545446
O    1.40515228   0.31923925  -0.41520332
H    2.04532175  -0.20434560   0.07768053
H    0.80464986  -1.32158093  -1.49294629
C   -0.36082511  -1.25988833   0.30386755
C    0.62728327  -2.10487216   1.11317599
H    1.33123125  -1.48668242   1.66678716
H    1.18912333  -2.76736703   0.45637421
H    0.08935715  -2.71665216   1.83324595
C   -1.21449964  -0.36238135   1.21754082
C   -0.49034153   0.73101698   2.01675177
O   -0.14549202   1.86128726   1.26418844
H    0.47857564   1.57365647   0.57371956
H    0.39456262   0.31444494   2.52016627
H   -1.17115240   1.09443606   2.79242459
H   -1.98945876   0.12089341   0.62083510
H   -1.71351954  -1.01741115   1.93580028
H   -1.05975462  -1.95315966  -0.18036067
