25
Energy: 1.538
C    2.75048620  -1.63228504   0.66190334
H    2.78199554  -2.15708180  -0.29009246
H    3.76520950  -1.54513803   1.04261843
H    2.16794790  -2.23076886   1.35835361
C    2.13052713  -0.24956892   0.48217909
H    2.70228326   0.29900040  -0.26426716
H    2.18121015   0.30179594   1.42637485
C    0.66619878  -0.34875970   0.03971997
O   -0.06729734  -1.11208728   0.98892060
H    0.14461053  -0.77044844   1.86636064
H    0.61943549  -0.93211174  -0.88646734
C   -0.02977566   1.01707538  -0.17902334
C    0.90779095   2.11206524  -0.68753145
H    0.33370226   3.01380473  -0.88878684
H    1.38993984   1.80565749  -1.61319135
H    1.67219449   2.35958084   0.04374273
C   -1.20894961   0.90755240  -1.16197443
C   -2.21728305  -0.21534009  -0.87327037
O   -2.68394203  -0.22344824   0.45060016
H   -1.96424476  -0.59636323   0.98201965
H   -1.77475635  -1.18817150  -1.12237439
H   -3.09524736  -0.06806954  -1.50880593
H   -1.74266127   1.85994415  -1.14488301
H   -0.82046590   0.75619367  -2.17161806
H   -0.42658281   1.33584869   0.79319824
