25
Energy: 1.092
C    1.23601466   0.45549473   2.84628722
H    0.77597342   0.35313113   3.82652589
H    1.83131084  -0.43151767   2.64397534
H    1.90036181   1.31686099   2.86309958
C    0.17295502   0.62060024   1.76662514
H   -0.37400960   1.55281929   1.92148189
H   -0.53215922  -0.21065532   1.82993418
C    0.80217006   0.62524434   0.36599625
O    1.37498160  -0.62057236   0.06370071
H    0.65408285  -1.27024435   0.11414600
H    1.64477745   1.32918931   0.36166285
C   -0.19138180   1.10470088  -0.72155191
C    0.52517445   1.16133875  -2.07132288
H    1.28017899   1.94361209  -2.05848766
H   -0.17637377   1.36970202  -2.87614585
H    1.02958541   0.21946077  -2.27099374
C   -1.50676091   0.31077823  -0.81002395
C   -1.41918749  -1.14605995  -1.26374301
O   -1.04253240  -1.97345118  -0.17149275
H   -1.02326239  -2.89069961  -0.46189645
H   -0.70164449  -1.25305131  -2.08536837
H   -2.40773742  -1.45974462  -1.62616609
H   -2.00784968   0.32616401   0.15866199
H   -2.15016284   0.83196493  -1.52269242
H   -0.47985513   2.12577213  -0.44451493
