25
Energy: 0.885
C   -0.17399414  -0.76583982  -2.94261556
H   -0.00659946  -1.78904467  -2.61528042
H   -1.19516047  -0.68774895  -3.30978523
H    0.50710451  -0.54484341  -3.76104818
C    0.05083102   0.19714302  -1.78239031
H   -0.19035450   1.21420619  -2.09735356
H    1.10165253   0.16592321  -1.48894185
C   -0.81748583  -0.17891349  -0.57265457
O   -0.47511962  -1.45200284  -0.08527664
H    0.48766439  -1.44292951   0.03957956
H   -1.85485496  -0.27908806  -0.91447586
C   -0.78470010   0.91223389   0.53759709
C   -2.17301898   1.04789837   1.16537929
H   -2.90297181   1.34434669   0.41608523
H   -2.17010238   1.79696593   1.95472878
H   -2.48229318   0.09580524   1.59029376
C    0.22934424   0.63467344   1.65742887
C    1.70102113   0.61452821   1.23024490
O    2.12724828  -0.63532157   0.71807869
H    2.15246511  -1.27029634   1.44299247
H    2.33327097   0.89093326   2.08398364
H    1.87666240   1.33815145   0.43116911
H    0.11143589   1.41830188   2.40872466
H   -0.01952852  -0.31825784   2.13206080
H   -0.52186704   1.86574606   0.06751247
