25
Energy: 0.32
C    2.70698372   0.52075701   1.48403710
H    3.41701522   1.03865540   0.84343447
H    2.88959259   0.81663957   2.51479364
H    2.87731061  -0.54881530   1.38922748
C    1.27729478   0.85066862   1.07213089
H    1.12382687   1.93186083   1.08547200
H    0.59197202   0.39618917   1.79067181
C    0.97056099   0.31065414  -0.33441138
O    1.00738753  -1.09096888  -0.36926327
H    0.29118140  -1.42542685   0.19655085
H    1.78543330   0.62230940  -1.00138513
C   -0.33408111   0.90238406  -0.92574430
C   -0.53325963   0.36236376  -2.34216036
H    0.25126523   0.73655837  -2.99520151
H   -1.49580782   0.67067397  -2.74395080
H   -0.47560901  -0.72281963  -2.34473267
C   -1.60084529   0.71784600  -0.07057534
C   -2.09108373  -0.71622046   0.14994405
O   -1.34492831  -1.43633150   1.11230766
H   -1.41404387  -0.98565227   1.96166167
H   -2.01856405  -1.29810572  -0.76942682
H   -3.14594377  -0.68737617   0.45594968
H   -1.45154489   1.19070876   0.90440538
H   -2.40694315   1.26088351  -0.56989768
H   -0.17496809   1.98577831  -0.99168407
