25
Energy: 1.264
C    3.17655572   0.14402511   1.86567424
H    2.75439006   0.05620383   2.86389293
H    4.16549149  -0.30792713   1.86589891
H    3.27437263   1.20116138   1.63129375
C    2.27429677  -0.54669640   0.84861876
H    2.13554309  -1.58640313   1.14081695
H    2.74954595  -0.53029909  -0.13704813
C    0.90832268   0.14431193   0.74969227
O    1.06698696   1.51317740   0.43633065
H    1.54771337   1.57401903  -0.39778000
H    0.42834943   0.14244872   1.73451384
C   -0.03438671  -0.53406550  -0.27127574
C   -0.25832972  -2.01108466   0.04285164
H   -0.54423661  -2.13614826   1.08483604
H    0.63611474  -2.59796548  -0.14678567
H   -1.05501857  -2.40819023  -0.58036900
C   -1.36894503   0.22274647  -0.29856473
C   -2.13635231   0.04201304  -1.60812951
O   -3.38190199   0.69826089  -1.59584028
H   -3.23854364   1.62371986  -1.36743904
H   -2.37089601  -1.01018046  -1.78348272
H   -1.52393890   0.40226847  -2.44980439
H   -1.99529644  -0.11347731   0.53009723
H   -1.16921931   1.28883004  -0.15632606
H    0.43158686  -0.44850075  -1.26218035
