25
Energy: 1.543
C    0.20340784   1.14255591   2.70358906
H   -0.13476504   0.39925705   3.42250986
H    1.25006755   0.95272723   2.47872375
H    0.13103697   2.12400831   3.16708756
C   -0.65393560   1.09642605   1.44548056
H   -0.26866704   1.79451591   0.69964531
H   -1.66963966   1.41468189   1.69250559
C   -0.76976114  -0.29919688   0.81355163
O   -1.70149863  -0.27389737  -0.23968122
H   -1.35778620   0.36080465  -0.89034893
H   -1.20387358  -0.98289307   1.55531718
C    0.58748323  -0.90705749   0.38351428
C    0.35150130  -2.30919699  -0.18067983
H   -0.41985598  -2.28582211  -0.94605953
H    0.01171385  -2.97465592   0.60926206
H    1.26646114  -2.71555116  -0.60633973
C    1.42777587  -0.04479827  -0.57473847
C    0.87604398   0.18457475  -1.98134788
O   -0.10161504   1.21575943  -1.95813640
H   -0.41975099   1.37001164  -2.85309373
H    0.44353905  -0.73913426  -2.38270982
H    1.70372152   0.49046896  -2.63603450
H    1.60660313   0.93358732  -0.12713606
H    2.39651024  -0.53773224  -0.68604297
H    1.18527692  -1.00958338   1.29537722
