25
Energy: 1.107
C   -0.07311032   2.25728219   2.87240347
H   -0.47682461   1.54779115   3.59088837
H    0.62403666   2.91405509   3.38723084
H   -0.89630150   2.85328151   2.48611570
C    0.62796841   1.51824937   1.73762592
H    1.40127187   0.87434215   2.15368492
H    1.10831672   2.23950096   1.06935282
C   -0.36011834   0.67329193   0.92302817
O   -1.41014763   1.48119083   0.42883531
H   -1.02029074   2.16988251  -0.12268173
H   -0.85641576  -0.04333766   1.58701091
C    0.31975464  -0.09470308  -0.23375325
C    1.43859126  -1.01213781   0.25223652
H    1.07552580  -1.67025769   1.03947655
H    2.28010137  -0.44204256   0.63576398
H    1.79452736  -1.61888801  -0.57569531
C   -0.75016044  -0.88955320  -0.99607524
C   -0.31645958  -1.36146514  -2.38545445
O    0.60042234  -2.43210535  -2.37575426
H    0.20610495  -3.16627012  -1.89136354
H    0.18920760  -0.55481547  -2.92151871
H   -1.21099371  -1.64638145  -2.95978449
H   -1.04608623  -1.75560775  -0.39722537
H   -1.63014650  -0.25464396  -1.11536393
H    0.74765821   0.64733865  -0.92022114
