25
Energy: 0.49
C    0.96561544   0.58699465  -2.73824125
H    0.07569515   1.21085430  -2.70983107
H    1.78862942   1.13382528  -2.28072344
H    1.22459570   0.41625322  -3.78056906
C    0.73549297  -0.75197260  -2.04230099
H    1.65119337  -1.34425409  -2.11100600
H   -0.05129639  -1.30559280  -2.55306086
C    0.39170332  -0.64018229  -0.54669005
O    1.52355666  -0.16394484   0.16174608
H    1.71908402   0.72778158  -0.14877163
H    0.23773430  -1.65481383  -0.16000608
C   -0.86726322   0.19759951  -0.23699080
C   -2.04476555  -0.23827627  -1.11110248
H   -2.23938952  -1.30005698  -0.97763654
H   -1.85957461  -0.04848128  -2.16395057
H   -2.94027215   0.31003519  -0.82734579
C   -1.29589594   0.08894538   1.23743361
C   -0.40494363   0.80726267   2.26326102
O    0.65431779   0.03016683   2.74802385
H    1.19291753  -0.23405856   1.98242597
H   -1.00549753   1.05374199   3.14347608
H   -0.03344337   1.75239866   1.83406472
H   -2.29673217   0.51774445   1.31953250
H   -1.36198762  -0.96292086   1.52285398
H   -0.64207230   1.25086997  -0.44750380
