25
Energy: 1.316
C   -0.83348393   1.51122032  -2.39027283
H   -1.70704308   0.87239512  -2.28204438
H   -1.17704182   2.52869314  -2.56229884
H   -0.27960913   1.18326495  -3.26722947
C    0.05340005   1.45946956  -1.15301023
H   -0.49601186   1.81635742  -0.27960401
H    0.90617095   2.12653059  -1.30117727
C    0.61739353   0.05889822  -0.86508020
O    1.72241939   0.14653545   0.00107700
H    1.42269315   0.64675355   0.77812853
H    1.03008548  -0.34159887  -1.79875231
C   -0.47187701  -0.92816432  -0.35192117
C   -0.32144883  -2.27865020  -1.05374470
H   -0.42113312  -2.16083164  -2.13007588
H   -1.08314796  -2.97830306  -0.71496192
H    0.65751196  -2.70238957  -0.84201143
C   -0.44031412  -1.15635346   1.16701749
C   -0.81618642   0.05822253   2.02401390
O    0.26111196   0.94371494   2.27013521
H    0.88826738   0.50668931   2.85766713
H   -1.22895065  -0.28489073   2.98169485
H   -1.58055704   0.65703838   1.52322387
H   -1.15193663  -1.95304896   1.39364883
H    0.55359165  -1.50815805   1.45531862
H   -1.45321178  -0.51688215  -0.60684663
