25
Energy: 1.369
C    1.14454669   1.95251479  -2.07794733
H    0.29815699   2.57940759  -1.80829493
H    1.96534069   2.15923137  -1.39299139
H    1.46772553   2.23804333  -3.07625500
C    0.77005573   0.47331549  -2.06701389
H    1.61371252  -0.10698314  -2.44833162
H   -0.07322974   0.30529524  -2.73674919
C    0.43176111  -0.10072273  -0.68018486
O    1.60190333  -0.19311115   0.11529891
H    1.93723924   0.69722516   0.26786050
H    0.12189469  -1.14179616  -0.82697508
C   -0.69301554   0.65339576   0.05827631
C   -2.01434543   0.53927163  -0.70006992
H   -2.29357724  -0.50194092  -0.84028780
H   -1.94622821   1.00991026  -1.67701360
H   -2.80718015   1.03313723  -0.14299282
C   -0.85463103   0.17444142   1.51490055
C   -0.95972148  -1.34372159   1.70788130
O    0.28241024  -1.96115027   1.93308181
H    0.92815908  -1.57728464   1.32036440
H   -1.46683371  -1.80463799   0.84670504
H   -1.55706116  -1.56011481   2.59850407
H   -0.00589500   0.51740799   2.11150064
H   -1.74995999   0.64899860   1.92057811
H   -0.42051467   1.71416135   0.11169958
