25
Energy: 0.878
C   -2.28235615  -2.28066083   0.24205549
H   -2.25014448  -2.19633813   1.32578495
H   -3.01812426  -1.57265986  -0.13144501
H   -2.60283908  -3.28601197  -0.02081694
C   -0.91208249  -1.98158499  -0.35566153
H   -0.97815210  -2.00490437  -1.44275922
H   -0.19856805  -2.75247490  -0.04559529
C   -0.38900936  -0.61376856   0.09608931
O   -0.26030774  -0.57777452   1.50793467
H    0.27784932  -1.33099766   1.77804030
H   -1.13435007   0.15296515  -0.13394844
C    0.94423293  -0.24852544  -0.59914874
C    0.72556813   0.08406110  -2.07328970
H   -0.04930108   0.83754282  -2.18369663
H    0.42742545  -0.79828057  -2.63317892
H    1.64638338   0.46411950  -2.51026534
C    1.66877052   0.89915225   0.12652070
C    0.97682612   2.26302139   0.08292782
O   -0.31165996   2.28342529   0.64427687
H   -0.32237721   1.68742088   1.40461241
H    0.86456014   2.61101654  -0.94704551
H    1.62298706   2.98358907   0.61210958
H    1.80532420   0.62070357   1.17506639
H    2.66048075   1.01636134  -0.31611971
H    1.60572013  -1.12405278  -0.53509815
