25
Energy: 0.977
C   -1.42601938  -0.46574922   2.45366551
H   -1.83309679  -1.38035240   2.02578120
H   -1.75074758  -0.41350276   3.49040070
H   -1.84910652   0.38409564   1.92419088
C    0.09883715  -0.45845313   2.39307931
H    0.47886981  -1.30564846   2.96896192
H    0.48160442   0.45187432   2.85406165
C    0.67916548  -0.58143428   0.97436344
O    0.41446910  -1.86091890   0.43306404
H   -0.54254668  -1.95235358   0.35556910
H    1.77275030  -0.53955466   1.04982195
C    0.21248374   0.51988248   0.00014118
C    0.47108215   1.92128221   0.54463457
H    1.51334090   2.02636028   0.83982053
H   -0.15632392   2.13748016   1.40473985
H    0.25538382   2.66231852  -0.22148690
C    0.91323398   0.33018969  -1.35435938
C    0.03945481   0.79243215  -2.52034323
O   -1.15124294   0.04600154  -2.62616973
H   -0.91540029  -0.88624945  -2.69881235
H    0.61237640   0.73166664  -3.45750004
H   -0.28017438   1.82758809  -2.38105669
H    1.85596587   0.87870556  -1.36906584
H    1.13900223  -0.73136714  -1.49001145
H   -0.86304225   0.39225135  -0.16911670
