25
Energy: 1.44
C   -3.12861141   0.95787761  -0.27135969
H   -3.17587861   1.07716341   0.81022989
H   -3.80215695   1.68304756  -0.72146075
H   -3.49451853  -0.03361911  -0.53361742
C   -1.70588171   1.18993402  -0.77838173
H   -1.46184446   2.24257046  -0.64506261
H   -1.65585785   0.95009112  -1.84206512
C   -0.66937920   0.34356102  -0.02469176
O   -0.99463753  -1.03628035  -0.13560081
H   -1.89794534  -1.16176561   0.17450776
H   -0.69687853   0.63632554   1.03855851
C    0.77376284   0.50277196  -0.55065347
C    1.09092923   1.94227139  -0.95857190
H    0.47383356   2.27053177  -1.78949473
H    2.13002406   2.01135954  -1.27168170
H    0.94418101   2.61860659  -0.11910275
C    1.82284517   0.04846446   0.48107150
C    1.99635844  -1.46795873   0.64329693
O    1.00127008  -2.08013941   1.41626148
H    0.16219943  -1.92305942   0.95053489
H    2.93656748  -1.66159032   1.16820344
H    2.05503116  -1.93478024  -0.35172158
H    2.79148164   0.44547294   0.17115946
H    1.58631871   0.47701285   1.45754007
H    0.85484858  -0.13798806  -1.43557672
