25
Energy: 0.0
C   -2.52309740   1.64176019   1.24876393
H   -2.98355320   2.04137769   2.14897553
H   -2.19492683   2.47099871   0.62703479
H   -3.27239889   1.08027818   0.69580772
C   -1.34830324   0.73826499   1.61068063
H   -1.71932559  -0.10485430   2.19049891
H   -0.63369397   1.29201924   2.22727712
C   -0.63097744   0.22486110   0.35412591
O   -0.26277891   1.32479738  -0.46196493
H    0.33736121   1.88758947   0.04155947
H   -1.34386848  -0.34211937  -0.25484492
C    0.59555028  -0.66302824   0.66380200
C    0.28501740  -1.70873060   1.73648628
H    0.09279470  -1.24804978   2.70107612
H    1.13244460  -2.38031892   1.85369978
H   -0.58082230  -2.30096729   1.44959970
C    1.12090173  -1.39171539  -0.58592494
C    1.80910750  -0.51954140  -1.64765133
O    0.93328665   0.05739589  -2.57532029
H    0.32116018   0.62717427  -2.07985431
H    2.47977036  -1.14907713  -2.23949614
H    2.42017845   0.25232338  -1.15233933
H    1.85133936  -2.13192928  -0.25294656
H    0.30019707  -1.92820019  -1.06624982
H    1.39379904  -0.00914632   1.04171409
