25
Energy: 0.847
C   -1.76459117  -1.54339893   1.49421859
H   -2.56273058  -2.19470377   1.84338987
H   -0.82722103  -2.08821661   1.57342017
H   -1.72372160  -0.68237507   2.15891965
C   -2.04271148  -1.11799946   0.05550911
H   -3.03132036  -0.65497576   0.00901523
H   -2.06001159  -1.99512553  -0.59153111
C   -1.04613873  -0.09275819  -0.51276472
O   -1.21572838   1.16311339   0.11350104
H   -0.96662087   1.05771886   1.04070619
H   -1.31112185   0.08635677  -1.56268738
C    0.43036465  -0.53815748  -0.44711868
C    0.65733557  -1.84792145  -1.19714703
H    0.34142499  -1.75113866  -2.23389959
H    0.10481887  -2.66566726  -0.74284628
H    1.71362770  -2.10747024  -1.18067683
C    1.34131749   0.57616783  -1.00206388
C    2.19248465   1.23378628   0.08609193
O    1.42062210   1.79830796   1.11887578
H    0.73502521   2.34116736   0.70751073
H    2.83517728   2.00211787  -0.37076613
H    2.83620133   0.49342395   0.56887494
H    2.01148196   0.17346886  -1.76217736
H    0.72818994   1.34777010  -1.47428437
H    0.68830223  -0.68545116   0.60693434
