25
Energy: 0.252
C   -0.78559676  -0.27114158   3.24646023
H   -1.73412642  -0.66417867   2.88896478
H   -0.17555169  -1.10678168   3.58181852
H   -0.97408717   0.38314159   4.09425532
C   -0.07592209   0.48865333   2.13139835
H    0.90150230   0.81603333   2.48346799
H   -0.65670140   1.37673562   1.86536793
C    0.08880686  -0.38163678   0.87790747
O   -1.17322565  -0.82151524   0.42140580
H   -1.66801875  -0.03788121   0.14616667
H    0.62569195  -1.30034157   1.14205129
C    0.85430351   0.34998255  -0.24878581
C    2.30978278   0.60977174   0.13260704
H    2.82951870   1.09125110  -0.69274612
H    2.81464822  -0.32670633   0.36026662
H    2.38459501   1.26183296   0.99832640
C    0.77882997  -0.45555266  -1.56209216
C   -0.11424199   0.20651912  -2.61387531
O   -1.45292863   0.34184620  -2.19862626
H   -1.76715219  -0.53172809  -1.93257433
H   -0.06457853  -0.37300963  -3.54821153
H    0.23231240   1.22200047  -2.82312076
H    1.77512966  -0.56909657  -1.99044517
H    0.38961256  -1.45506137  -1.35349840
H    0.35730106   1.31435088  -0.40867523
