25
Energy: 1.682
C    1.35580435  -0.15850607   2.73041368
H    1.52372980   0.91333918   2.82256518
H    1.66163849  -0.62215320   3.66555484
H    1.99314685  -0.54420723   1.93871896
C   -0.11448937  -0.46681722   2.46229256
H   -0.70940816  -0.11091618   3.30682864
H   -0.25685630  -1.54482054   2.38995221
C   -0.68538440   0.20057504   1.19936932
O   -0.77065789   1.60134344   1.37023981
H    0.12366524   1.93968416   1.49341483
H   -1.72854714  -0.12041884   1.08997477
C    0.07057954  -0.14766574  -0.10162522
C    0.17485923  -1.65462604  -0.31851089
H   -0.81302979  -2.11091524  -0.28950183
H    0.79370784  -2.12297858   0.44156832
H    0.62342447  -1.85232176  -1.28815858
C   -0.64188124   0.53214602  -1.27965768
C    0.19615186   0.62122533  -2.55670530
O    0.36218786  -0.60618869  -3.22959041
H   -0.51008967  -0.96091077  -3.43541295
H    1.20846048   0.96151438  -2.32579254
H   -0.26537268   1.35520839  -3.23459644
H   -1.57108614  -0.00334913  -1.49482707
H   -0.90796302   1.54771613  -0.98006534
H    1.08052094   0.27320293  -0.03425804
