25
Energy: 0.838
C   -1.73136888   1.00104783   2.42283160
H   -2.70122568   1.49184354   2.43766597
H   -1.87528205  -0.02210942   2.76757689
H   -1.07778898   1.51475641   3.12605732
C   -1.14694807   1.04111300   1.01336983
H   -1.09884699   2.07772506   0.67600874
H   -1.79841582   0.48687317   0.33595052
C    0.26511959   0.44517053   0.94777883
O    0.24079743  -0.96337019   1.13345127
H   -0.22859361  -1.14946620   1.95311830
H    0.86428682   0.88502212   1.76404318
C    1.00210484   0.78460491  -0.36517744
C    2.37567429   0.11285002  -0.37087875
H    2.97618852   0.47997868   0.45861682
H    2.89820180   0.32859333  -1.29942642
H    2.27348915  -0.96263654  -0.26340012
C    0.22789066   0.51336383  -1.66766296
C   -0.05160441  -0.95054154  -2.03169186
O   -1.02557360  -1.55969519  -1.22820152
H   -0.67135728  -1.55245245  -0.32116347
H    0.88279461  -1.52775107  -2.01083517
H   -0.44612392  -0.98247474  -3.05197561
H   -0.72537022   1.04360127  -1.63788135
H    0.81539618   0.94268762  -2.48279339
H    1.15799088   1.87070950  -0.33460254
