25
Energy: 1.552
C   -1.37349752  -3.20315552   1.20558110
H   -2.38173738  -2.84329069   1.01639856
H   -1.06877731  -3.81697972   0.36128629
H   -1.38363108  -3.82231727   2.09934306
C   -0.41441712  -2.03038429   1.37902660
H    0.59918280  -2.41084365   1.49589812
H   -0.67522831  -1.47199278   2.28320844
C   -0.47245078  -1.07743815   0.17729929
O   -1.79271521  -0.62153887  -0.02685508
H   -2.07339749  -0.14937005   0.76610060
H   -0.23045825  -1.63158555  -0.73649175
C    0.50066711   0.11710305   0.31558686
C    1.95071899  -0.34123678   0.45375422
H    2.62055115   0.51312779   0.40582885
H    2.20892152  -1.02706230  -0.35034541
H    2.12025826  -0.84004220   1.40373117
C    0.33391005   1.04213686  -0.89701184
C    0.85615695   2.45916594  -0.65902206
O    0.54947554   3.32887733  -1.72381896
H    0.88244210   2.94265032  -2.54150151
H    1.94253078   2.44740369  -0.48570081
H    0.37510516   2.89849650   0.21852426
H    0.85055371   0.60284374  -1.75535781
H   -0.72739191   1.11014656  -1.14622803
H    0.21803175   0.67600227   1.21715373
