25
Energy: 1.653
C    2.02461114   0.71092387   2.61186206
H    2.03923174   0.69215196   3.69953209
H    3.02311997   0.47253050   2.25286773
H    1.77674845   1.71822768   2.29075722
C    1.01883569  -0.30638951   2.08602184
H    0.02604490  -0.09514896   2.49033406
H    1.31725914  -1.29571351   2.44271522
C    0.95400323  -0.37649504   0.54814473
O    0.89142446  -1.72630112   0.12083475
H    0.06405862  -2.10135518   0.44569308
H    1.89321625  -0.00317286   0.12590246
C   -0.22693105   0.41154059  -0.05521038
C   -0.22893069   1.88123640   0.35071650
H    0.71510000   2.35055937   0.08151653
H   -0.38739539   1.99800903   1.41897166
H   -1.03061157   2.40465589  -0.16528336
C   -0.21110463   0.27925432  -1.58652469
C   -1.62209750   0.27393156  -2.17455634
O   -2.38071882  -0.82987403  -1.73595857
H   -1.89849894  -1.63395899  -1.96162033
H   -1.56434338   0.28484568  -3.27302389
H   -2.18125103   1.15514095  -1.85218780
H    0.36074929   1.09679186  -2.02728034
H    0.28026033  -0.65962299  -1.85707469
H   -1.15122901  -0.05630010   0.30923801
