25
Energy: 1.26
C    2.79000835  -1.41640590  -0.87060741
H    3.17033017  -0.55635790  -1.41670492
H    3.06334785  -1.30636037   0.17434870
H    3.27573343  -2.30887570  -1.25913849
C    1.28034548  -1.52674698  -1.05023368
H    0.90419105  -2.42350245  -0.55253724
H    1.07665244  -1.63525859  -2.11904858
C    0.50264483  -0.28545849  -0.56893757
O   -0.49512177   0.03602128  -1.52787048
H   -1.13128684  -0.68807715  -1.56167970
H    1.17074721   0.58235061  -0.57566850
C   -0.11926162  -0.43813334   0.83546386
C    0.90823053  -0.92005837   1.86003712
H    0.43821531  -1.01354822   2.83659161
H    1.72204705  -0.20352534   1.94227168
H    1.31802780  -1.88992931   1.59555068
C   -0.73446743   0.87302751   1.35734740
C   -2.04183569   1.33363085   0.69355301
O   -1.85850781   2.14008599  -0.43658577
H   -1.33330263   1.62774112  -1.07513030
H   -2.59891484   1.95465653   1.40079800
H   -2.66500073   0.45656747   0.45291706
H   -0.94070712   0.73605459   2.42074498
H   -0.00471457   1.67976042   1.26336034
H   -0.91685109  -1.19137006   0.76524422
