19
Energy: 2.75
C    1.81858304   1.48392811  -1.13927477
H    2.46359507   1.98156040  -0.41903387
H    2.44746608   0.98453373  -1.87507120
H    1.21713400   2.23224312  -1.64789938
C    0.92492435   0.46536543  -0.41719021
O    1.71876134  -0.43441183   0.33200304
H    2.25455837  -0.95968684  -0.27242438
C    0.01848754   1.19374352   0.58848070
C   -0.81611366   0.26265503   1.42393489
O   -1.97350520   0.43719521   1.68714291
H   -0.24334688  -0.58435161   1.83639108
H    0.66369474   1.72928694   1.29092932
H   -0.62296459   1.91285108   0.07814539
C    0.06821685  -0.28208078  -1.46498132
C   -0.76953942  -1.29931177  -0.86543862
C   -1.43441849  -2.16975926  -0.38337706
H   -2.03902463  -2.90675889   0.05347243
H    0.72862665  -0.75568102  -2.19990478
H   -0.56340569   0.43861114  -1.99008492
