19
Energy: 2.772
C    1.79853040   0.82465213  -0.57661482
H    1.57461602   1.20028570  -1.57248956
H    2.31104501   1.60704469  -0.01800080
H    2.46410190  -0.02913484  -0.67001003
C    0.49785885   0.42103322   0.12885406
O   -0.40930429   1.50589571   0.16216526
H   -0.03230941   2.21522442   0.69427609
C   -0.20161226  -0.70774621  -0.64840362
C   -0.57345635  -0.28356258  -2.03823031
O   -0.36653845  -0.92084845  -3.03288677
H   -1.08206017   0.69623846  -2.07062750
H    0.42513559  -1.59934195  -0.68225609
H   -1.13213697  -0.94163731  -0.12302520
C    0.82454790  -0.06269770   1.56240724
C   -0.36906576  -0.42867411   2.29640473
C   -1.37298527  -0.70987880   2.88318529
H   -2.24367293  -0.96640966   3.40833720
H    1.34024382   0.73806578   2.10330652
H    1.49515340  -0.92361110   1.50902310
