19
Energy: 1.113
C    1.26474814   0.98193370  -0.24303832
H    0.66165323   1.87979711  -0.14830187
H    2.17194591   1.09567144   0.34651658
H    1.54050181   0.85482349  -1.28824753
C    0.47900334  -0.23966947   0.24185305
O    1.30518901  -1.39430539   0.24047389
H    1.53297141  -1.59672228  -0.67521849
C    0.05408440  -0.07129325   1.70881355
C   -0.87815047   1.05558044   2.02210022
O   -1.35981398   1.83852320   1.25232644
H   -1.10974747   1.11514595   3.10522207
H   -0.41251210  -0.99979816   2.05194965
H    0.95328243   0.05494049   2.31865699
C   -0.75769063  -0.47015218  -0.65718376
C   -0.36343648  -0.78811272  -2.01329904
C    0.02710949  -1.07807317  -3.10740182
H    0.32581437  -1.31499864  -4.08458169
H   -1.37543605   0.42922833  -0.65793748
H   -1.34386648  -1.30285721  -0.25717757
