19
Energy: 2.541
C    0.40454355   1.46321154  -0.65755933
H    1.45024183   1.17526104  -0.60095487
H    0.06987702   1.40487257  -1.68979180
H    0.29498284   2.48966615  -0.31731806
C   -0.44198797   0.54034145   0.21732700
O   -1.77118150   1.01728248   0.14509058
H   -2.33577056   0.48382660   0.71648857
C   -0.35483684  -0.91194133  -0.29969580
C   -0.85056432  -1.03094781  -1.71255167
O   -0.33129776  -1.67906426  -2.57618906
H   -1.77965675  -0.45878276  -1.89984086
H    0.66977772  -1.27813017  -0.22710699
H   -0.99392912  -1.55325832   0.31763674
C    0.04784479   0.59466501   1.68353823
C    1.41970873   0.15785891   1.83103139
C    2.55194404  -0.21057196   1.94939423
H    3.54560874  -0.52753549   2.05897272
H   -0.59426902  -0.03746784   2.30721504
H   -0.04108040   1.62538217   2.03852011
