19
Energy: 2.0
C    1.47351819   1.49614125  -1.52963001
H    2.47502606   1.69130353  -1.15520392
H    1.53863742   0.90679453  -2.43962100
H    1.00426334   2.45024431  -1.75234385
C    0.65945879   0.76171189  -0.46292166
O    0.61257957   1.60903000   0.66442881
H    0.36093942   1.08770183   1.43689000
C   -0.76519236   0.49002498  -1.01135329
C   -1.68711716  -0.17577905  -0.03427337
O   -2.33096761  -1.16289652  -0.25758213
H   -1.78374347   0.36320729   0.92863229
H   -1.21148765   1.45926464  -1.25132269
H   -0.70644497  -0.10954984  -1.92063698
C    1.34591603  -0.57745817  -0.11199824
C    0.68832987  -1.23010362   1.00022328
C    0.14921291  -1.70030810   1.96085494
H   -0.33334110  -2.16077409   2.77039299
H    2.38722575  -0.38066149   0.15977973
H    1.33208350  -1.23800612  -0.98138835
