19
Energy: 2.465
C   -1.85649387  -0.05400351   0.75883998
H   -2.19014171  -0.98954720   1.20584631
H   -2.43336268   0.76117471   1.19159094
H   -2.05081472  -0.08211284  -0.30928154
C   -0.36899016   0.18129672   1.03310187
O   -0.16463748   0.47653209   2.40402636
H   -0.54714417  -0.22640330   2.94052170
C    0.48452911  -1.05138604   0.65619064
C    0.46774116  -1.42665789  -0.79780781
O    1.44581581  -1.64850017  -1.45464317
H   -0.54539148  -1.55771254  -1.22135271
H    1.51681456  -0.87492604   0.96722222
H    0.10272171  -1.91774328   1.20774741
C    0.13529727   1.42258197   0.27505417
C    0.01178413   1.28588586  -1.15844793
C   -0.11104056   1.19554073  -2.34591909
H   -0.19179430   1.10341973  -3.38754328
H    1.18280667   1.58835505   0.53780367
H   -0.43790140   2.28936162   0.61351830
