19
Energy: 2.017
C   -1.26966244  -0.84535174   1.41629269
H   -1.80159481   0.03062376   1.77633360
H   -1.97264955  -1.51931866   0.93415187
H   -0.81398557  -1.34520184   2.26680306
C   -0.18207841  -0.40171081   0.43685491
O    0.71752992   0.40032355   1.16276136
H    1.38954864   0.72895792   0.54887866
C    0.54704841  -1.64879486  -0.12228526
C    1.73684787  -1.34688159  -0.98079558
O    2.23952135  -0.26858278  -1.14567748
H    2.15895220  -2.24689923  -1.47068352
H    0.92135154  -2.24308871   0.71833626
H   -0.14121303  -2.28564582  -0.68217379
C   -0.81151675   0.38234669  -0.74128404
C   -1.51282241   1.56515718  -0.28690882
C   -2.07980910   2.54377649   0.10283679
H   -2.57929413   3.40344213   0.43603713
H   -1.51095593  -0.26665712  -1.27560458
H   -0.02345404   0.69070676  -1.43436896
