19
Energy: 2.413
C   -1.25693030   0.44419650  -1.59289067
H   -1.99669471  -0.25489852  -1.97437497
H   -1.75492386   1.23317745  -1.03576058
H   -0.73533469   0.88357811  -2.43842819
C   -0.25651054  -0.29448939  -0.70669979
O    0.34818132  -1.28161614  -1.51424450
H    0.89167026  -1.85183127  -0.95650762
C    0.83711422   0.68726173  -0.20590438
C    0.28519148   1.86006680   0.54311516
O    0.35434604   3.00362816   0.19076881
H   -0.20735521   1.59210717   1.49960657
H    1.50772984   0.14012535   0.46329862
H    1.39732061   1.04033048  -1.07366369
C   -0.98976957  -0.96536693   0.47818873
C   -0.06820355  -1.65140873   1.35948433
C    0.74220963  -2.21869986   2.03402015
H    1.42059546  -2.71816463   2.65906349
H   -1.69581981  -1.69479669   0.07013104
H   -1.55509514  -0.22135614   1.04246518
