19
Energy: 1.384
C   -1.05827915  -1.70611321   0.60162090
H   -1.69248039  -1.38811243   1.42718234
H   -1.69110233  -1.96373437  -0.24315303
H   -0.50216452  -2.58864348   0.90850712
C   -0.08363659  -0.58329136   0.22730279
O    0.82527413  -0.34654443   1.28514719
H    0.33141855   0.01140559   2.03296599
C    0.75967430  -1.00373999  -0.98981349
C    1.73681633   0.06391317  -1.38866545
O    1.89421689   0.47389740  -2.50463502
H    2.32666465   0.45046361  -0.53814009
H    1.34681779  -1.87921544  -0.70096740
H    0.11854514  -1.26211956  -1.83297210
C   -0.86736635   0.70793269  -0.11216175
C   -1.60181254   1.19266214   1.03761351
C   -2.15855939   1.55582978   2.03337098
H   -2.67750575   1.90075306   2.87719463
H   -1.56084628   0.50972917  -0.93232155
H   -0.16271614   1.48044416  -0.43419079
