19
Energy: 2.753
C    1.49107427  -0.48624994  -0.20157577
H    1.51761244  -0.22826824  -1.25658464
H    2.39536364  -0.11189902   0.27295607
H    1.46511597  -1.57016600  -0.10313722
C    0.26577254   0.13459731   0.47117755
O    0.36258849   0.04557317   1.87998107
H    0.36405440  -0.88826809   2.12347720
C    0.18722365   1.65061733   0.17023113
C   -0.17292921   1.91887677  -1.26151028
O    0.57473040   1.81054466  -2.19324064
H   -1.22563050   2.22717003  -1.41993529
H   -0.54570094   2.09126512   0.84522500
H    1.17064022   2.07204038   0.38438965
C   -1.02727586  -0.56246078  -0.01881533
C   -1.05482275  -1.95308677   0.38497925
C   -1.03158154  -3.08643802   0.76997877
H   -1.04200639  -4.08984058   1.07542722
H   -1.08414684  -0.49918862  -1.10840420
H   -1.89545353  -0.05534772   0.41183110
