19
Energy: 2.681
C    1.90728784   0.54901927   0.27267594
H    2.44052418   1.38860062  -0.17293805
H    1.43869838   0.89542255   1.18907696
H    2.62953265  -0.22933211   0.50765833
C    0.85710272   0.02043587  -0.70755818
O    1.46966686  -0.34116480  -1.93437130
H    1.96001676   0.41401156  -2.27836286
C    0.19363368  -1.27571206  -0.21278243
C   -0.53883457  -1.18124732   1.09261626
O   -1.63227235  -1.63075007   1.29283425
H    0.04281064  -0.71784340   1.91113240
H   -0.48588574  -1.63983392  -0.98555063
H    0.98368695  -2.02196406  -0.08525226
C   -0.22164775   1.09680073  -0.96783467
C   -0.95585227   1.43792225   0.23053326
C   -1.55017359   1.74466992   1.22339991
H   -2.08896476   1.99060823   2.08888707
H   -0.91852211   0.71942042  -1.72131964
H    0.25546024   1.99928451  -1.36476480
