19
Energy: 2.047
C    1.89105405  -0.39162924  -0.93822287
H    2.36753401   0.43339681  -1.46092301
H    2.65340408  -0.91526755  -0.36677750
H    1.45127617  -1.07284787  -1.66188809
C    0.82433276   0.14705954   0.01366729
O    1.49329741   0.95844531   0.95218546
H    0.89260869   1.14208250   1.68640631
C   -0.21114772   1.01625889  -0.76491260
C   -0.72598394   0.29772454  -1.97440803
O   -1.51642801  -0.60619223  -1.95357852
H   -0.30000491   0.64892387  -2.93420311
H   -1.04201519   1.22439960  -0.08569512
H    0.27563846   1.94880216  -1.04888908
C    0.09124162  -1.01692805   0.71516062
C   -0.77548824  -0.52496516   1.76560265
C   -1.44565917  -0.03740810   2.63010615
H   -2.06582532   0.33652927   3.38906440
H    0.83047443  -1.69445424   1.15087910
H   -0.50534401  -1.56697083  -0.01547619
