19
Energy: 1.084
C    0.18712479  -0.85397445  -2.41117022
H   -0.69554931  -1.42384421  -2.68859134
H    0.32465935  -0.06591559  -3.14643754
H    1.05428491  -1.50871319  -2.41764404
C   -0.02100610  -0.22927111  -1.02782408
O   -1.20059588   0.52533316  -1.09598086
H   -1.53742432   0.66768751  -0.19614182
C   -0.12496600  -1.34919747   0.04118986
C   -0.54272147  -0.82995458   1.38719572
O   -1.49491250  -0.11526117   1.57601952
H    0.05369543  -1.20864020   2.23627516
H   -0.90464389  -2.04368191  -0.28580826
H    0.81940591  -1.88697063   0.11250765
C    1.20053985   0.67195339  -0.69675603
C    1.26252926   1.04726086   0.69705244
C    1.31724436   1.34355031   1.85669106
H    1.35522563   1.61921701   2.86797639
H    1.12602197   1.57501031  -1.30784923
H    2.12048153   0.14536782  -0.96373552
