19
Energy: 2.321
C   -1.04647477   1.10655595  -0.89481314
H   -0.67906355   1.89786005  -1.54696821
H   -2.07194982   0.87351656  -1.17352507
H   -1.03316042   1.46899770   0.12891111
C   -0.17461263  -0.14073348  -1.02784842
O   -0.17213485  -0.61559791  -2.36104786
H    0.03697499   0.11313944  -2.95581992
C    1.28925672   0.17635515  -0.60782287
C    1.41994124   0.50283487   0.85248602
O    1.23407499   1.58995966   1.32615278
H    1.73230835  -0.34694909   1.48650592
H    1.90694840  -0.68728715  -0.85746538
H    1.62080788   1.04110597  -1.18855385
C   -0.73989998  -1.30268993  -0.19147162
C   -0.92443515  -0.95993578   1.20093634
C   -1.11149039  -0.69394070   2.35306978
H   -1.25460951  -0.44852557   3.36260803
H   -0.06788872  -2.16040526  -0.27766071
H   -1.70208477  -1.58886637  -0.62448729
