19
Energy: 0.047
C   -0.57456071  -0.15677559  -2.06554436
H   -1.58758468   0.14105645  -2.32269785
H    0.10174853   0.27285602  -2.79933028
H   -0.49319032  -1.23967460  -2.09371560
C   -0.21424841   0.36845345  -0.67566708
O   -0.30095998   1.77298599  -0.73306625
H   -0.11217169   2.11959434   0.15135047
C   -1.20265844  -0.20046225   0.36781395
C   -1.05391440   0.37292827   1.74235571
O   -0.37047956   1.31284109   2.04953942
H   -1.66818112  -0.14877591   2.50199491
H   -2.22892136   0.01444312   0.05173267
H   -1.10027668  -1.28634077   0.42532128
C    1.22879759  -0.05665093  -0.30653015
C    1.38711623  -1.49263929  -0.24365827
C    1.49740056  -2.68313739  -0.18479575
H    1.61471491  -3.72426526  -0.13707233
H    1.49619678   0.37569678   0.66220672
H    1.90969836   0.35044932  -1.05874405
