19
Energy: 0.0
C    0.57706588   1.42981109   0.49203729
H    0.00641924   2.32820546   0.71606451
H    1.03278396   1.06508971   1.40919238
H    1.35919907   1.68791990  -0.21824064
C   -0.35534006   0.36556269  -0.09737667
O   -1.06146046   0.86930169  -1.20937822
H   -0.40883359   1.12694772  -1.87624292
C    0.45677239  -0.88818670  -0.49517560
C    1.41502980  -0.67238349  -1.62469198
O    1.47191028   0.29609038  -2.33351984
H    2.09669870  -1.53055816  -1.78733227
H    0.99717183  -1.27760613   0.36994818
H   -0.22968752  -1.67608332  -0.82483653
C   -1.43043119  -0.02791136   0.93659488
C   -0.87213946  -0.63818471   2.12234593
C   -0.39950420  -1.14546034   3.09802485
H   -0.00064078  -1.58726260   3.96160445
H   -2.13305652  -0.71841982   0.46288272
H   -1.98356838   0.87227530   1.21427831
