19
Energy: 1.548
C   -1.94899719  -0.27382967  -0.63422309
H   -2.67166663  -0.86073539  -0.07310449
H   -2.34097403   0.72712692  -0.79070341
H   -1.79720176  -0.74969886  -1.59932817
C   -0.62384102  -0.22081213   0.12469363
O   -0.18750908  -1.55362848   0.28778893
H    0.54938067  -1.56266732   0.91199845
C    0.41526646   0.59591084  -0.67880193
C    0.71422245  -0.03890637  -2.00491989
O    0.81313572   0.54775096  -3.04574494
H    0.84919021  -1.13511990  -1.94313633
H    0.07229147   1.62066139  -0.82643896
H    1.35168995   0.62203762  -0.11110653
C   -0.83331273   0.44427785   1.50643578
C    0.38892208   0.43622755   2.28275281
C    1.42744478   0.36634817   2.87481910
H    2.31934419   0.34378977   3.42655634
H   -1.60151899  -0.11224534   2.05053771
H   -1.17645745   1.47240436   1.37399698
