19
Energy: 2.285
C   -1.21202831  -1.03398105   0.33924704
H   -1.26662950  -2.11571871   0.44793137
H   -1.28474935  -0.58047273   1.32399678
H   -2.05699057  -0.69752057  -0.26047433
C    0.10981529  -0.64277997  -0.32246866
O    0.28665488  -1.32129948  -1.55087043
H   -0.54553394  -1.32662460  -2.03536384
C    0.16318516   0.89480401  -0.53164884
C   -0.95003118   1.38440138  -1.40362711
O   -1.80499120   2.15966797  -1.07905472
H   -0.93049263   0.96075940  -2.42978746
H    0.12441104   1.38988855   0.43891529
H    1.10706987   1.13255935  -1.02829745
C    1.30109538  -1.07439926   0.55656071
C    1.30804606  -0.43318429   1.85271130
C    1.30713984   0.09713391   2.92543666
H    1.31603444   0.55769332   3.86764422
H    2.22702330  -0.84139672   0.02514251
H    1.25380341  -2.15854099   0.68721283
