19
Energy: 2.012
C    1.13407659   1.80933725   0.56787302
H    2.11098562   1.94514046   0.10553208
H    0.65240219   2.78116585   0.65346689
H    1.27124147   1.39905557   1.56438103
C    0.26312065   0.87282124  -0.27350043
O   -0.03042193   1.45791485  -1.52894547
H    0.79126641   1.74780708  -1.94064171
C    0.98332351  -0.48076241  -0.46139829
C    0.19616707  -1.42166122  -1.32847887
O    0.07577924  -2.59901819  -1.14160307
H   -0.27253219  -0.92454868  -2.19988036
H    1.94018005  -0.30947692  -0.96598336
H    1.17898715  -0.94303311   0.50660545
C   -1.10046576   0.64876639   0.40888971
C   -0.97545791   0.03094689   1.71072051
C   -0.86158791  -0.47640765   2.78835166
H   -0.77758177  -0.92738125   3.73145460
H   -1.71413799   0.01502546  -0.23656569
H   -1.60092750   1.61536264   0.50814267
