19
Energy: 2.863
C   -0.09221073  -0.63502586   1.40731326
H   -0.31117749  -0.04481569   2.29380580
H   -0.71508287  -1.52798793   1.41769595
H    0.95266659  -0.93441593   1.43754668
C   -0.37822751   0.19464968   0.15111655
O   -1.69718686   0.70654372   0.18020158
H   -2.31293499  -0.03573651   0.14014724
C    0.52567020   1.44242916   0.12611473
C    1.99307925   1.14639130   0.17535091
O    2.76276745   1.60062382   0.97302865
H    2.34831268   0.46538776  -0.62443036
H    0.32071104   1.99493319  -0.79500995
H    0.25130809   2.07670445   0.97057632
C   -0.18014386  -0.67139659  -1.11660443
C   -1.15272812  -1.74450902  -1.16361628
C   -1.99562662  -2.59460472  -1.15977656
H   -2.70917577  -3.36294462  -1.18629977
H    0.82262572  -1.10257177  -1.12588284
H   -0.30646409  -0.04568856  -2.00467292
