19
Energy: 1.972
C    0.75074380   0.61400770   1.32713750
H    0.29512750   1.57105301   1.08843639
H    0.24175472   0.18688950   2.18852994
H    1.79550287   0.78365284   1.58648410
C    0.64174786  -0.33086825   0.12793155
O    1.18343966  -1.60422988   0.43190352
H    2.07020402  -1.49074212   0.79143283
C   -0.83363081  -0.56220214  -0.24044445
C   -1.61423511  -1.13216172   0.90757306
O   -2.68169743  -0.73714702   1.28346875
H   -1.11122562  -1.99043424   1.38985387
H   -1.28653411   0.36652924  -0.58789808
H   -0.86911821  -1.30392566  -1.04326382
C    1.39242317   0.26582436  -1.08750474
C    0.84808314   1.53800673  -1.51052240
C    0.39728412   2.59246021  -1.85217950
H    0.00494343   3.51520368  -2.15951969
H    1.33836060  -0.44513998  -1.91676957
H    2.44689630   0.40130692  -0.82454915
