19
Energy: 2.032
C   -0.55897388   0.52278528   1.98052722
H   -0.84038654  -0.50197938   2.20205384
H    0.21391441   0.83891400   2.67783841
H   -1.42941354   1.16265264   2.11868138
C   -0.03803405   0.63568201   0.54433737
O    0.40942713   1.95828463   0.28715622
H   -0.34404841   2.55701547   0.33473812
C    1.20860650  -0.23734752   0.33621343
C    1.04695892  -1.70737144   0.55191951
O    0.04277561  -2.29568355   0.84218595
H    1.99930162  -2.25669929   0.40777473
H    1.56327688  -0.08778131  -0.68853750
H    2.00556352   0.12211505   0.99265529
C   -1.15585971   0.23226945  -0.44355872
C   -0.72825537   0.34217476  -1.82227428
C   -0.34798345   0.45480921  -2.95126919
H   -0.03270334   0.54285290  -3.94758075
H   -2.02493004   0.88038594  -0.28863208
H   -1.45403287  -0.79742539  -0.23690758
