19
Energy: 2.315
C    0.33313555  -1.10649538  -1.80686557
H    1.11120851  -0.44308144  -2.17461705
H    0.76456757  -2.08873515  -1.62190568
H   -0.43495091  -1.20662081  -2.57061938
C   -0.28597857  -0.53508486  -0.52625049
O   -1.38735051  -1.31707164  -0.11004768
H   -1.08340972  -2.20660506   0.10269251
C    0.80063817  -0.49164965   0.57883796
C    0.22676665  -0.17074631   1.92776836
O    0.24973824  -0.90868124   2.87185755
H   -0.23465630   0.83189246   1.99785449
H    1.30335077  -1.46052452   0.63418458
H    1.52636486   0.27969335   0.31373968
C   -0.86413443   0.86655048  -0.80462606
C    0.15452609   1.84201897  -1.12259486
C    1.00784881   2.64097497  -1.37957297
H    1.74282641   3.35274667  -1.61043308
H   -1.43295598   1.19485858   0.06782083
H   -1.56338174   0.78436811  -1.64054201
