19
Energy: 1.31
C    0.74977069  -0.53456329   1.90346213
H    1.79715160  -0.33596334   2.11523083
H    0.16758555  -0.25486705   2.77735487
H    0.61434739  -1.59233812   1.70246325
C    0.30348709   0.29918269   0.70476239
O    0.51070176   1.65677683   1.05614946
H    0.05170579   2.21404009   0.41524499
C    1.16008250  -0.02524629  -0.53877185
C    1.13472507  -1.44137213  -1.02584786
O    0.46044714  -2.34167735  -0.61166708
H    1.83443729  -1.60439235  -1.87110998
H    0.83338921   0.60224240  -1.37637139
H    2.20005370   0.24392016  -0.33251115
C   -1.19078737   0.04660470   0.40472908
C   -1.65574556   0.87994445  -0.68351320
C   -1.97099138   1.62217833  -1.56915202
H   -2.29431956   2.23810974  -2.35433693
H   -1.77287370   0.27583250   1.30152348
H   -1.33615901  -1.00481875   0.15190310
