19
Energy: 2.169
C   -1.46901821  -0.19043199   0.16387558
H   -1.84334108  -0.64511109  -0.75056609
H   -1.60126574  -0.89296469   0.98287239
H   -2.04667739   0.70626283   0.37527679
C    0.01967266   0.14612912   0.02401870
O    0.79178537  -1.01564470  -0.16930251
H    0.45427646  -1.46703810  -0.95567936
C    0.22765604   1.12477748  -1.15866940
C   -0.07779319   0.54086280  -2.50484435
O   -0.29534753  -0.61447060  -2.74812557
H   -0.07006013   1.29636914  -3.31577404
H   -0.37036655   2.02881236  -1.02544689
H    1.27859136   1.43280131  -1.19366207
C    0.54590431   0.81736699   1.31141487
C    0.27289993   0.02651097   2.49320800
C    0.04061170  -0.62901617   3.46648304
H   -0.15202988  -1.20452736   4.32167930
H    0.08621963   1.80277082   1.42382571
H    1.62841390   0.93734516   1.21844333
