19
Energy: 2.248
C    0.62320972   0.99770201  -1.75287846
H    1.62117613   1.42810367  -1.76681320
H    0.62265229   0.06407623  -2.30751165
H   -0.05639341   1.69741903  -2.23160988
C    0.17076846   0.76934486  -0.31373314
O   -0.01959067   2.04038043   0.26524129
H   -0.15492509   1.93525526   1.21521900
C   -1.17814691  -0.01198486  -0.29560446
C   -0.98526536  -1.44065132  -0.70403266
O   -0.93038844  -1.83458405  -1.83634802
H   -0.86636281  -2.14196529   0.14556072
H   -1.59278326   0.03254685   0.71256317
H   -1.85086342   0.48611737  -0.99510313
C    1.24906952  -0.01653833   0.46756151
C    0.82772514  -0.30070367   1.82339280
C    0.43435916  -0.47855753   2.94015883
H    0.12031588  -0.66884776   3.92276326
H    2.16060966   0.58796516   0.50023826
H    1.47082830  -0.95083820  -0.05394260
