19
Energy: 2.537
C    0.72599420  -0.00480545   1.63559521
H    1.55247094   0.62082155   1.96423218
H   -0.06512787   0.04588439   2.38196447
H    1.06287253  -1.03492655   1.56689843
C    0.19341252   0.49860230   0.28998740
O   -0.21130016   1.84976652   0.40362304
H   -0.98411198   1.88845077   0.98057050
C    1.28582319   0.50293383  -0.79850843
C    1.77021011  -0.86240259  -1.17810853
O    1.72288818  -1.32965655  -2.28081662
H    2.21054251  -1.43758647  -0.33947115
H    0.89125628   1.01181311  -1.67976485
H    2.13351363   1.07787604  -0.41840693
C   -0.99125613  -0.37806981  -0.18132293
C   -2.09779427  -0.31036734   0.75006093
C   -2.98605028  -0.18993926   1.54373068
H   -3.78340244  -0.12425819   2.22210183
H   -0.66166660  -1.41471192  -0.28680327
H   -1.32993322  -0.02287009  -1.15857690
