19
Energy: 2.765
C   -1.74714269   0.46412012   1.39286659
H   -2.19374516   1.41330822   1.10962860
H   -2.44262786  -0.34023106   1.17424999
H   -1.56100892   0.46129285   2.46379320
C   -0.43002284   0.24136587   0.65023549
O    0.09131008  -0.98827889   1.10882582
H    0.97100320  -1.11212717   0.73058936
C   -0.64362982   0.19952556  -0.88406804
C   -1.23970459  -1.10345222  -1.33575523
O   -0.79702460  -1.78700962  -2.21431418
H   -2.15071415  -1.40212857  -0.78518171
H   -1.32605686   1.00188070  -1.17325741
H    0.30983084   0.34491986  -1.39842826
C    0.54784808   1.39596434   0.98470760
C    1.85287539   1.17319466   0.39762962
C    2.91386241   0.91516055  -0.09334368
H    3.85499479   0.73235194  -0.51883910
H    0.65717704   1.45726173   2.07090248
H    0.13889229   2.34103920   0.62026932
