19
Energy: 1.345
C    0.97169296   1.82355126   0.19393472
H    1.97057410   1.74336225  -0.22817930
H    0.37433551   2.47573229  -0.43939937
H    1.04045515   2.27545198   1.18067741
C    0.30999328   0.44271934   0.30500552
O   -0.96207541   0.54781322   0.89953068
H   -1.51994833   1.07494292   0.30935348
C    0.20823352  -0.20568862  -1.09493602
C   -0.71809217   0.49504139  -2.03722609
O   -1.52380229   1.33838709  -1.74697448
H   -0.61918231   0.14887253  -3.08504389
H    1.19444468  -0.29005225  -1.55556719
H   -0.18046954  -1.22428618  -0.97650767
C    1.15770351  -0.45721113   1.23029820
C    0.66827860  -1.81880912   1.27500327
C    0.25495842  -2.94181448   1.28571443
H   -0.10516278  -3.92622361   1.32078255
H    1.11318239  -0.03779873   2.23780449
H    2.19655462  -0.45634443   0.89113409
