19
Energy: 1.599
C   -0.82090029   0.28744759  -1.19661620
H   -1.11571189   1.33237928  -1.13201005
H   -0.29812211   0.12618593  -2.13796914
H   -1.71667481  -0.32764582  -1.18529626
C    0.09069215  -0.06989314  -0.01723182
O    1.18786259   0.81977525   0.06044658
H    1.72996580   0.70024347  -0.72886156
C   -0.67728501   0.06714568   1.30922889
C   -1.20364367   1.46083139   1.50083495
O   -2.32404269   1.73590673   1.82599275
H   -0.44063006   2.23893389   1.32170471
H   -1.49481365  -0.65255411   1.36012664
H    0.02191611  -0.11942084   2.12898251
C    0.59783739  -1.52616218  -0.16301796
C    1.40789499  -1.67957764  -1.35362419
C    2.09183234  -1.73265817  -2.33480955
H    2.68442551  -1.82660340  -3.19518000
H   -0.25296956  -2.20901000  -0.21135544
H    1.20478483  -1.78246003   0.70985101
