22
Energy: 1.777
C    3.19872697  -0.02236195   0.02303409
H    3.57764464   0.96183856   0.28607110
H    3.24046374  -0.65384434   0.90732060
H    3.85314152  -0.44806920  -0.73430238
C    1.76108618   0.07650127  -0.48886079
C    0.88732523   0.74654935   0.58097317
C   -0.50479656   1.18986307   0.11769414
N   -1.44946494   0.10153520   0.02834987
C   -2.48615879  -0.01435461   0.86962642
O   -2.78290819   0.76965741   1.73955203
H   -3.07564951  -0.92986077   0.66908573
H   -1.23754424  -0.62484173  -0.64379493
H   -0.91967552   1.89076275   0.84631071
H   -0.43381770   1.69153908  -0.85393319
H    1.41362999   1.63757059   0.92916267
H    0.77653477   0.07448988   1.43396331
H    1.75559093   0.70798796  -1.38742713
C    1.27607556  -1.32529026  -0.89058388
O    0.16741538  -1.32819684  -1.76699801
H    0.40680429  -0.85314691  -2.57069769
H    0.95446961  -1.88285747  -0.00815770
H    2.10628384  -1.87310462  -1.35687998
