22
Energy: 1.819
C   -0.30809299  -0.00771831   2.81790377
H   -0.68479099  -0.97199913   3.14812867
H    0.69107850   0.12846768   3.22765864
H   -0.95255493   0.77253609   3.21780574
C   -0.28179476   0.05332009   1.29170201
C    0.27377198   1.40769052   0.83426184
C    0.57463505   1.46496668  -0.66546118
N    1.63711701   0.55857592  -1.04799734
C    1.40449836  -0.59378322  -1.69189732
O    0.31613327  -0.99144597  -2.03832883
H    2.33182584  -1.15869261  -1.89399748
H    2.57036072   0.78124139  -0.74105725
H   -0.30411207   1.17645619  -1.24509439
H    0.86356787   2.48213269  -0.94697697
H    1.19389513   1.62078901   1.38506996
H   -0.44557648   2.19274927   1.07496491
H    0.38642117  -0.73798332   0.93365248
C   -1.68386588  -0.23250581   0.70069649
O   -1.73803610  -1.39696660  -0.07571576
H   -1.14746778  -1.30406001  -0.84246717
H   -2.03354747   0.63511514   0.12096320
H   -2.40024767  -0.39528872   1.51045276
