22
Energy: 3.309
C   -1.95672441  -2.04695876  -0.06376195
H   -2.01893867  -2.53728958   0.90591767
H   -2.91748139  -1.58845410  -0.28259947
H   -1.75362437  -2.80124862  -0.82107608
C   -0.86566354  -0.97803750  -0.05447445
C    0.49576712  -1.58669248   0.31158739
C    1.68259911  -0.83602167  -0.30564187
N    1.95730424   0.44871444   0.30590180
C    1.42832495   1.59700989  -0.14440177
O    0.68838482   1.70503281  -1.09343573
H    1.75439210   2.46833875   0.45382561
H    2.49769973   0.45319323   1.15575374
H    2.58694486  -1.44491863  -0.22363603
H    1.47851937  -0.64623556  -1.36232175
H    0.53372618  -2.60947128  -0.06788235
H    0.60713565  -1.63218499   1.39751587
H   -0.79045068  -0.56478015  -1.06609742
C   -1.27059230   0.18434288   0.87631200
O   -1.92934218   1.21625541   0.19320141
H   -1.31888193   1.57213922  -0.47027538
H   -0.38947727   0.58130016   1.40195034
H   -1.97606311  -0.16719052   1.63423441
