22
Energy: 2.818
C   -0.52119382   0.28010427  -2.63376359
H   -1.04640767  -0.60087156  -2.99593048
H   -1.22064027   0.91613983  -2.09918375
H   -0.14964428   0.83617840  -3.49098029
C    0.64090839  -0.11670547  -1.72636459
C    0.22582325  -1.15039374  -0.66938042
C   -1.05969147  -0.78605754   0.09207123
N   -1.03088342  -1.27452052   1.45911565
C   -0.33289314  -0.63468210   2.40671393
O    0.27947187   0.39683717   2.24423076
H   -0.37817495  -1.14388983   3.38581030
H   -1.43479327  -2.17461983   1.65853474
H   -1.16221493   0.29897488   0.13977928
H   -1.93855548  -1.20020687  -0.40241809
H    1.04015035  -1.24229458   0.05362299
H    0.10150695  -2.12461266  -1.14861345
H    1.41906309  -0.58310749  -2.34224023
C    1.29475734   1.13218481  -1.09480246
O    0.46871808   1.86079007  -0.22799818
H    0.48223245   1.44593514   0.65333838
H    1.56538988   1.81935782  -1.90386181
H    2.21949266   0.82790009  -0.58585642
