22
Energy: 3.509
C   -0.64597158   0.81920035  -2.85789319
H   -0.48281517   1.87574177  -3.05224073
H   -0.16021791   0.24736194  -3.64594896
H   -1.71525861   0.62036425  -2.89795887
C   -0.08195714   0.44076440  -1.48839812
C   -0.27423120  -1.06380936  -1.25746939
C    0.49814581  -1.63559303  -0.06134210
N   -0.22930220  -1.56315436   1.18918048
C    0.11110008  -0.73085324   2.18303425
O    1.02987381   0.05479384   2.14788395
H   -0.54471817  -0.83638070   3.06563594
H   -1.03502066  -2.15965966   1.28941913
H    0.73788793  -2.68700795  -0.24943301
H    1.43028803  -1.08571902   0.08505117
H    0.07080791  -1.58495302  -2.15271681
H   -1.33875111  -1.28350830  -1.14158057
H    0.99263990   0.65318290  -1.49437085
C   -0.70476017   1.32566751  -0.38033417
O    0.24598323   2.07192505   0.32805378
H    0.74005006   1.48674144   0.92555449
H   -1.31250892   0.71580906   0.30297801
H   -1.36791305   2.06678069  -0.83565264
