22
Energy: 3.05
C    0.07783345   1.45054545  -2.68930768
H   -0.52908025   1.05054440  -3.49869239
H   -0.06830411   2.52731955  -2.65539353
H    1.12648499   1.26322835  -2.91629972
C   -0.31643399   0.81552947  -1.35387939
C    0.56332656   1.38700825  -0.23467239
C    0.15525721   0.98421115   1.18016871
N    0.44637311  -0.40373570   1.46966783
C   -0.43348212  -1.20235113   2.09301497
O   -1.50231072  -0.85651339   2.53623212
H   -0.06187700  -2.24130842   2.17624594
H    1.26180256  -0.80179090   1.02957677
H    0.69398441   1.61844520   1.89600181
H   -0.91702626   1.12595819   1.33981464
H    0.52767067   2.47633524  -0.29563491
H    1.59897593   1.07954087  -0.40155144
H   -1.36179509   1.06293498  -1.14530566
C   -0.22542945  -0.71897718  -1.43727870
O    1.09655015  -1.20885221  -1.38569613
H    1.56389501  -0.89817103  -2.16878556
H   -0.72322767  -1.05881814  -2.35611516
H   -0.74140707  -1.17371142  -0.59089065
