22
Energy: 3.272
C    1.79607369  -0.69145456   0.64257445
H    2.04780369  -0.68603580   1.70148805
H    2.36830746  -1.48105261   0.16053009
H    2.09722160   0.25676945   0.20609045
C    0.30053043  -0.92684530   0.45006002
C   -0.55645514   0.14889007   1.13518332
C   -0.92448809   1.31295709   0.21459933
N    0.22669818   2.05202288  -0.25681716
C    0.65458045   1.98362533  -1.52890009
O    0.13405400   1.34501871  -2.40928053
H    1.55841651   2.60134718  -1.69493062
H    0.75114751   2.57817345   0.42343211
H   -1.43214670   0.93965085  -0.67757302
H   -1.59481495   1.99976051   0.74167923
H   -0.03729079   0.52580526   2.01920009
H   -1.48936242  -0.31248484   1.46609139
H    0.08085457  -0.91496102  -0.62410743
C   -0.07852692  -2.31225528   0.99597013
O   -1.43848525  -2.62002099   0.81046385
H   -1.63476423  -2.57970019  -0.13266223
H    0.08288477  -2.34585074   2.07645464
H    0.55638507  -3.07816873   0.52779733
