22
Energy: 2.807
C    2.15038864  -0.35790792   1.87065389
H    2.62840298  -1.33218287   1.79912395
H    2.86202058   0.39511579   1.54189135
H    1.90428222  -0.17287427   2.91418647
C    0.89044855  -0.31023552   1.00898653
C    0.21755635   1.07374575   1.08791385
C   -0.12077146   1.66364329  -0.28257268
N   -1.11759905   0.88666702  -0.98443866
C   -0.83187150   0.16309080  -2.07748179
O    0.23392386   0.13034844  -2.64508287
H   -1.71013622  -0.41047132  -2.43320621
H   -1.99280264   0.73450547  -0.50776044
H   -0.49265830   2.68656941  -0.15869929
H    0.76567315   1.68491402  -0.92048388
H    0.88066151   1.77478562   1.59637855
H   -0.70055025   1.00075523   1.67490929
H    1.17662210  -0.50394025  -0.03111264
C   -0.06963705  -1.42569172   1.45018436
O   -1.21265365  -1.54083711   0.63430624
H   -0.92651518  -1.80221569  -0.24843188
H   -0.44717154  -1.21813181   2.45505465
H    0.47225945  -2.38134417   1.47988871
