22
Energy: 3.091
C    0.13866873  -1.67682532   2.07504833
H   -0.89141679  -2.01186573   1.98451038
H    0.79281561  -2.54589567   2.04574949
H    0.25582036  -1.19172594   3.04123889
C    0.47926086  -0.71182811   0.94404153
C    0.25439251  -1.35624553  -0.43607811
C   -0.97588975  -0.79419278  -1.14964408
N   -0.75815233   0.57331677  -1.57251841
C   -1.35191405   1.62539913  -0.98735849
O   -2.16608665   1.57121944  -0.09831756
H   -1.01580969   2.58487970  -1.42742492
H   -0.02549857   0.72677700  -2.24736844
H   -1.21055222  -1.40181280  -2.02943255
H   -1.83990216  -0.78496745  -0.48224045
H    0.13971390  -2.43517582  -0.32893467
H    1.12899048  -1.17349599  -1.06510491
H   -0.17388569   0.16368533   1.03378103
C    1.92716037  -0.21987874   1.07232502
O    2.25186079   0.74720879   0.09929178
H    1.67332092   1.50753927   0.22791744
H    2.62407136  -1.04563587   0.90929755
H    2.09580549   0.17996253   2.08192978
