22
Energy: 3.405
C    0.32803014  -0.57271706  -3.12783893
H    0.88903638  -1.40257264  -3.55114114
H   -0.64812208  -0.54540739  -3.60483311
H    0.85053006   0.35245475  -3.36166760
C    0.17733935  -0.72902313  -1.61377456
C   -0.67067817   0.42893971  -1.06532504
C   -1.33834239   0.16573226   0.28739787
N   -0.40011680   0.13392591   1.38344774
C   -0.36116019   1.08408221   2.32588620
O   -1.11249380   2.02593920   2.41706719
H    0.45366831   0.90467462   3.05576214
H    0.30730863  -0.58829974   1.33361579
H   -2.04425681   0.97059987   0.50654808
H   -1.87996923  -0.78543950   0.25168609
H   -1.46939062   0.63085691  -1.78141001
H   -0.05914157   1.33053505  -0.99179516
H   -0.33553368  -1.67347973  -1.40482585
C    1.57117441  -0.82589702  -0.97820902
O    1.51376543  -1.57525644   0.22539326
H    2.40899850  -1.71110395   0.55186702
H    1.96784821   0.17959540  -0.78020149
H    2.24885691  -1.32843181  -1.68016698
