22
Energy: 3.486
C   -0.65242479   1.17518710  -1.46150559
H   -1.14207378   1.61578471  -0.59791557
H    0.04034811   1.89996730  -1.88431384
H   -1.41682910   0.95669651  -2.20374069
C    0.08128391  -0.10109488  -1.06339677
C    1.26201098   0.17495165  -0.12646244
C    0.84683655   0.73031259   1.23621686
N   -0.06045871  -0.15340822   1.93435053
C   -1.35386873   0.15177721   2.12816958
O   -1.88079241   1.19467467   1.82681339
H   -1.90272106  -0.66838506   2.62928234
H    0.27358116  -1.08031467   2.14513133
H    1.73863022   0.88605614   1.85265637
H    0.32597210   1.68235322   1.12554272
H    1.93870828   0.89045010  -0.59776350
H    1.80484908  -0.76184265   0.01599544
H   -0.61928032  -0.77160247  -0.55569475
C    0.58819528  -0.83946835  -2.30547623
O    1.12899044  -2.08457188  -1.91032323
H    1.42449730  -2.55910936  -2.69326086
H    1.35400700  -0.23198780  -2.80991440
H   -0.24560721  -0.99253195  -3.00481926
