22
Energy: 3.367
C    1.50869533  -0.76311051  -0.95812385
H    2.31278044  -0.91935415  -0.24174204
H    0.66495074  -1.38162538  -0.67152360
H    1.85274022  -1.10264117  -1.93314256
C    1.13248560   0.71676306  -1.03071038
C    0.98592168   1.38410912   0.34683907
C   -0.16024650   0.90119730   1.24414371
N    0.07418334  -0.38747343   1.86422983
C   -0.54862987  -1.51494394   1.49964651
O   -1.31819670  -1.63067926   0.57284466
H   -0.27055557  -2.37190883   2.14130689
H    0.74288333  -0.41817827   2.61749095
H   -0.30317438   1.63447555   2.04460346
H   -1.08163592   0.82973274   0.66590898
H    0.82757499   2.45171648   0.18003323
H    1.93044029   1.27160988   0.88775251
H    1.96264957   1.23777908  -1.52534256
C   -0.08869062   0.93509899  -1.94473253
O   -1.32951177   0.51726478  -1.44694655
H   -1.27317174  -0.39045255  -1.10710975
H    0.12052198   0.44008751  -2.90694656
H   -0.20638310   2.00635620  -2.13767824
