22
Energy: 2.861
C    1.51800893  -0.13124053  -0.75426716
H    1.98095665   0.16157604  -1.69514996
H    1.69847745   0.66326421  -0.03570288
H    2.00053170  -1.03752660  -0.39136746
C    0.01659664  -0.34809170  -0.94891366
C   -0.63264664  -1.01117863   0.27108946
C   -0.47973334  -0.21320752   1.56649199
N   -1.08838615   1.09688107   1.47913152
C   -0.36798467   2.22904796   1.42760092
O    0.83474831   2.29812836   1.49355014
H   -1.01034559   3.12477899   1.32897446
H   -2.08832799   1.13441180   1.36276950
H   -0.94378850  -0.76585600   2.38993433
H    0.57281853  -0.05126634   1.80099767
H   -0.18934547  -1.99776504   0.41537605
H   -1.69677419  -1.15632476   0.06623742
H   -0.45498379   0.62506447  -1.12373246
C   -0.25413261  -1.20836841  -2.19546619
O    0.27390375  -2.50805032  -2.10610569
H    1.22742077  -2.43553610  -1.98534245
H    0.14226499  -0.69375886  -3.08354530
H   -1.33035300  -1.34234814  -2.33220195
