22
Energy: 2.916
C   -2.32617242  -0.38084150  -1.78985171
H   -2.82192813   0.27976349  -2.49667325
H   -2.35823071  -1.39422312  -2.18427925
H   -2.87289792  -0.35104811  -0.85064779
C   -0.88601718   0.07079706  -1.55518385
C   -0.17349944  -0.95316952  -0.66569173
C    1.31938880  -0.65956861  -0.47031753
N    1.81648669  -1.20211677   0.78056941
C    1.57216310  -0.56294747   1.93434195
O    0.98450278   0.49033242   2.02577897
H    1.98486466  -1.09108103   2.81167707
H    2.21882463  -2.12434219   0.78666823
H    1.91226483  -1.06582759  -1.29083139
H    1.48061558   0.41950516  -0.42343715
H   -0.29825629  -1.95140221  -1.09093422
H   -0.66313140  -0.94669869   0.31042382
H   -0.36590141   0.14054226  -2.51706271
C   -0.88677212   1.47947984  -0.91645870
O   -1.29559614   1.49586274   0.42273536
H   -0.56214480   1.20613884   0.99023894
H   -1.60517033   2.10137596  -1.45967675
H    0.10192551   1.94549612  -1.03067571
