22
Energy: 3.486
C   -1.02136503  -0.26097167   1.69184821
H   -2.09607348  -0.38199496   1.80721916
H   -0.58757409  -1.24692109   1.55251034
H   -0.62419742   0.17518898   2.60622430
C   -0.71291087   0.62968570   0.49299297
C    0.78174699   0.94545325   0.37293783
C    1.64403935  -0.27955287   0.06708813
N    1.24527727  -0.93678290  -1.15791289
C    0.64967961  -2.14052150  -1.16640325
O    0.45493597  -2.83312285  -0.19767454
H    0.36472550  -2.45476630  -2.18873930
H    1.29096738  -0.39360526  -2.00531153
H    2.69277147   0.02491923  -0.01625868
H    1.55648672  -1.02415580   0.85945784
H    1.13403374   1.39048443   1.30557093
H    0.90738765   1.68238269  -0.42312120
H   -1.03815052   0.12263932  -0.42092641
C   -1.49806880   1.94141555   0.58094628
O   -1.30549653   2.67188981  -0.61416148
H   -1.82017439   3.48348606  -0.57035069
H   -1.14938303   2.52400863   1.44636764
H   -2.56503512   1.71950495   0.72249636
