22
Energy: 2.798
C   -2.55933090   0.39717452  -0.99774344
H   -3.25959320  -0.42020196  -0.84618989
H   -2.46568742   0.93416994  -0.05622346
H   -2.98001161   1.07090001  -1.74261709
C   -1.21285353  -0.14927451  -1.47497263
C   -0.62567113  -1.18591854  -0.50191805
C   -0.31714546  -0.71916658   0.92489741
N    0.86878496   0.10043623   1.01051092
C    1.99818553  -0.33753606   1.58315829
O    2.14656990  -1.40388785   2.13159337
H    2.80927640   0.41323901   1.51592122
H    0.84209799   0.98466110   0.51855094
H   -1.16670800  -0.17517282   1.34751005
H   -0.12379943  -1.59761833   1.54579901
H    0.29394618  -1.58803581  -0.93223025
H   -1.34147877  -2.00766465  -0.43048736
H   -1.38819442  -0.68725755  -2.41443371
C   -0.24799568   0.99365331  -1.84029582
O   -0.07857439   1.98109977  -0.84618294
H   -0.93556081   2.38466627  -0.66923279
H   -0.60369145   1.46889397  -2.76532674
H    0.74985515   0.59059016  -2.02793200
