22
Energy: 2.547
C    1.17587204  -0.62159685   1.53345658
H    2.11466741  -1.16575672   1.45813055
H    1.40484520   0.44033274   1.53110008
H    0.70278180  -0.88206860   2.47754990
C    0.26537336  -0.97218484   0.36127498
C   -1.12820764  -0.35040470   0.50326777
C   -1.13557299   1.17577667   0.40564648
N   -0.63387658   1.64944321  -0.86610390
C    0.56089115   2.25153980  -0.98980832
O    1.31484045   2.50464351  -0.08326312
H    0.78585312   2.51193870  -2.04221036
H   -1.17578655   1.43312459  -1.68732327
H   -2.15633880   1.54553547   0.54545066
H   -0.49421591   1.61248096   1.17234498
H   -1.54889402  -0.63410714   1.46945783
H   -1.77333411  -0.76669368  -0.27505295
H    0.72739915  -0.59499797  -0.56046542
C    0.12211741  -2.49540734   0.22564650
O   -0.60130452  -2.87767209  -0.92155724
H   -0.11767493  -2.58072337  -1.70053000
H   -0.44173935  -2.89500918   1.07167380
H    1.11741713  -2.96161369   0.22232084
