22
Energy: 2.843
C   -1.23180949  -2.39557126  -1.28007279
H   -2.26815826  -2.67466209  -1.45629124
H   -0.61057170  -2.90494578  -2.01220188
H   -0.95065301  -2.74427388  -0.28995874
C   -1.05855627  -0.88285816  -1.39737886
C    0.40909838  -0.46447279  -1.19627110
C    0.91659159  -0.52135709   0.24651687
N    0.66462007   0.71813274   0.95141565
C    1.62603230   1.35004894   1.63871123
O    2.75209108   0.94676291   1.80888988
H    1.26677389   2.30737059   2.06282987
H   -0.22930051   1.16215920   0.79251693
H    0.45904287  -1.35801074   0.78544792
H    2.00037392  -0.66322749   0.26293854
H    0.55049764   0.55537137  -1.56094463
H    1.02545952  -1.11891045  -1.81469280
H   -1.33717500  -0.58945660  -2.41839147
C   -2.02228468  -0.18460128  -0.42744524
O   -1.87051199   1.21877756  -0.38560671
H   -2.01438094   1.57355727  -1.26971141
H   -1.84936670  -0.52887279   0.59423309
H   -3.05490489  -0.44361368  -0.70029606
