22
Energy: 3.511
C   -1.28389667  -2.75599104   0.24703167
H   -1.37409141  -3.07314155  -0.78948405
H   -1.04241814  -3.62677269   0.85202583
H   -2.24558229  -2.36905611   0.57381615
C   -0.20376476  -1.68378219   0.38277986
C   -0.59022404  -0.44862334  -0.43821945
C    0.30604553   0.76182756  -0.16500435
N   -0.13539434   1.92544722  -0.90401548
C   -0.76578418   2.95663534  -0.31699903
O   -0.99204007   3.06020277   0.86276950
H   -1.05303968   3.73561483  -1.04975021
H   -0.02899910   1.90716219  -1.90526918
H    0.25302693   1.03290034   0.89189860
H    1.34122908   0.53562852  -0.42990436
H   -1.61940670  -0.17286525  -0.19652610
H   -0.55014465  -0.69917276  -1.50146436
H   -0.13187846  -1.38998488   1.43733920
C    1.15072883  -2.26751998  -0.04671122
O    2.26013952  -1.46574433   0.28333114
H    2.27929054  -1.34221059   1.23884302
H    1.18453993  -2.37628494  -1.13354424
H    1.26666579  -3.26637410   0.39928946
