22
Energy: 3.286
C    0.86638438   1.30205595   0.68981108
H    0.94896289   1.53364395   1.75058910
H    1.63342368   0.56737572   0.46167261
H    1.06442549   2.20984118   0.12249820
C   -0.52202878   0.75669462   0.35914162
C   -0.71032127   0.55903711  -1.14886100
C    0.26506971  -0.44595541  -1.76713729
N    0.17148191  -1.75222455  -1.15402306
C    1.14441183  -2.25423436  -0.37485310
O    2.19993447  -1.71842181  -0.14266547
H    0.87782114  -3.24714772   0.03335787
H   -0.70112662  -2.24666483  -1.24800206
H    0.05859195  -0.53797105  -2.83859826
H    1.29616968  -0.11591530  -1.63626798
H   -0.58161764   1.51661336  -1.65704635
H   -1.73231617   0.21839967  -1.33608605
H   -0.65019711  -0.20714229   0.86439438
C   -1.61753483   1.69962918   0.88473567
O   -1.74879849   1.67784863   2.28341335
H   -0.90266879   1.91963435   2.67638296
H   -2.59441925   1.38882760   0.50514257
H   -1.42094829   2.72281489   0.53021740
