22
Energy: 3.271
C    1.38639153   1.31416439   0.72032074
H    1.43936150   1.54838063  -0.33930230
H    1.08908456   2.20963458   1.26291953
H    2.38216272   1.02930807   1.05269973
C    0.39672897   0.18103424   0.97656556
C   -1.03110601   0.53891185   0.53507492
C   -1.36090941   0.07835852  -0.88526743
N   -0.52018492   0.69071437  -1.89128445
C    0.44010100   0.00897608  -2.53854741
O    0.69064204  -1.16081902  -2.38793285
H    0.99001116   0.64879561  -3.25559664
H   -0.63026491   1.67927410  -2.04993882
H   -1.20644996  -0.99922491  -0.97479228
H   -2.40762002   0.30579443  -1.11182237
H   -1.18409329   1.61705683   0.61997904
H   -1.73521280   0.04641494   1.20903685
H    0.72386558  -0.70179177   0.41463684
C    0.40026710  -0.18071551   2.46975637
O   -0.45542691  -1.25496423   2.77363543
H   -0.18300418  -2.01891329   2.25224309
H    0.03124809   0.66167708   3.06038857
H    1.42763839  -0.40446756   2.79134379
