22
Energy: 3.375
C    1.88510279  -0.04190783   2.33538067
H    2.81856532   0.04468555   1.78564716
H    1.76315409   0.84997504   2.94668512
H    1.95433472  -0.90451907   2.99386633
C    0.71373224  -0.18808054   1.36582803
C    0.72601891   0.98102249   0.37233404
C   -0.45493599   1.00186500  -0.60432350
N   -0.62142740  -0.25393216  -1.29752671
C   -0.17606907  -0.45825593  -2.54441402
O    0.35819090   0.36622212  -3.24669606
H   -0.37021847  -1.49394574  -2.88707229
H   -1.01737079  -1.00212092  -0.74911225
H   -1.38354462   1.22696929  -0.07492147
H   -0.27890916   1.76804939  -1.36286233
H    1.65053514   0.92700532  -0.20516828
H    0.72899973   1.92309076   0.92505446
H    0.83096167  -1.12449260   0.81166336
C   -0.60259625  -0.29155418   2.14386985
O   -1.56800993  -0.96229162   1.35305744
H   -2.38857060  -1.03064167   1.85085056
H   -0.95822344   0.71135881   2.41814559
H   -0.43028783  -0.85820434   3.06948943
