22
Energy: 3.44
C   -1.36335298  -0.63248307  -2.56482540
H   -1.19188718  -1.58285278  -3.06567772
H   -2.39599031  -0.60592217  -2.22650864
H   -1.21793341   0.16812664  -3.28668571
C   -0.41383048  -0.45824235  -1.38070049
C   -0.78088556   0.82299639  -0.61880612
C    0.20133565   1.21374385   0.49205301
N    0.47927818   0.12644950   1.40259435
C   -0.22511863  -0.07715778   2.52430759
O   -1.13321288   0.61232782   2.92002167
H    0.13050458  -0.96893073   3.07878618
H    1.20318102  -0.51205708   1.10851377
H    1.15041211   1.54380576   0.06609729
H   -0.23518562   2.02749851   1.07604073
H   -1.76834886   0.68657413  -0.17448284
H   -0.84050875   1.65434202  -1.32413723
H   -0.54463926  -1.31235646  -0.70453688
C    1.04751883  -0.46499997  -1.86304344
O    1.95266992  -0.94315510  -0.88681645
H    1.81824559  -1.89241790  -0.78926598
H    1.37620368   0.54814417  -2.10309713
H    1.13183184  -1.07236926  -2.77329738
