22
Energy: 0.0
C    2.09833019   0.17092238   1.87312259
H    3.06924654   0.33230478   1.41117450
H    1.84905183   1.05179035   2.46075474
H    2.17637518  -0.68074430   2.54541014
C    1.03313258  -0.08783920   0.80907935
C   -0.32906464  -0.31933015   1.47618318
C   -1.51394396  -0.21170624   0.51054720
N   -1.66791687   1.12585673  -0.02924747
C   -1.18514388   1.51339009  -1.21675700
O   -0.58025495   0.81942231  -2.00230059
H   -1.40657427   2.57621024  -1.42805426
H   -2.08939354   1.81524622   0.57291288
H   -1.37056968  -0.89732453  -0.32508245
H   -2.43741615  -0.47451268   1.03373579
H   -0.46056475   0.41236677   2.27880037
H   -0.34432900  -1.31436121   1.92366180
H    0.96614240   0.79559675   0.16463383
C    1.46844840  -1.28021084  -0.05916461
O    0.58668945  -1.61639744  -1.09416934
H    0.37709276  -0.81508540  -1.60728741
H    1.54979432  -2.17690218   0.56388234
H    2.46747899  -1.05990834  -0.46876581
