22
Energy: 3.471
C   -0.73424136   1.25247197   2.27936087
H   -0.51610178   2.31800629   2.31243204
H   -1.80889539   1.12282158   2.38627233
H   -0.25485286   0.77008550   3.12985538
C   -0.24947785   0.64356851   0.96234900
C   -0.48823943  -0.87073934   0.96669377
C   -0.31382548  -1.52085012  -0.40721177
N   -1.24105163  -0.99861664  -1.38768220
C   -0.86121984  -0.15901191  -2.36606836
O    0.26746362   0.20927346  -2.57562371
H   -1.71781049   0.15955605  -2.99151015
H   -2.21893617  -1.20134940  -1.25523846
H    0.68862346  -1.33181428  -0.79226944
H   -0.46103575  -2.60186990  -0.32061984
H   -1.49870879  -1.07288606   1.33215435
H    0.22168556  -1.33584178   1.65271084
H   -0.81241433   1.09808838   0.14068603
C    1.23405360   0.97065429   0.71901101
O    2.10408421   0.34614099   1.63262174
H    1.91415868   0.68583704   2.51388023
H    1.36677683   2.06175595   0.74442716
H    1.53628617   0.62181383  -0.26958559
