22
Energy: 2.693
C    0.35060008  -1.30549152   2.85964265
H    0.58428484  -2.36612946   2.81442837
H    1.29211052  -0.76014986   2.90794427
H   -0.20649471  -1.11780276   3.77511701
C   -0.46481388  -0.88964651   1.63402649
C    0.32836538  -1.20079367   0.35608694
C   -0.35454246  -0.75447049  -0.93808966
N   -0.01287492   0.61030771  -1.28031239
C    0.36377081   0.95611110  -2.51926160
O    0.39599639   0.22045785  -3.47686065
H    0.64055392   2.02610317  -2.58133978
H    0.06002720   1.27044902  -0.51860568
H   -0.02381101  -1.36917770  -1.77960005
H   -1.44243635  -0.86141532  -0.84788064
H    0.48724546  -2.27960604   0.31809535
H    1.31078420  -0.72652382   0.40909190
H   -1.39058130  -1.47472033   1.62036638
C   -0.88521070   0.58638499   1.73384655
O    0.16274479   1.50116490   1.49661377
H    0.85667178   1.34668692   2.14667242
H   -1.32692306   0.76568490   2.72408445
H   -1.64502162   0.81422037   0.98335619
