22
Energy: 2.756
C    2.28261298   1.08157987   1.38861040
H    2.41933848   1.43895585   2.40633588
H    3.23172762   0.68572239   1.03440083
H    2.00689496   1.92946124   0.76600747
C    1.20528561   0.00231330   1.34796438
C    1.05899289  -0.61551580  -0.04811055
C    0.64035387   0.38292780  -1.13585458
N   -0.10104592  -0.26476959  -2.20239626
C   -1.40012054  -0.55700432  -2.04160956
O   -2.05149987  -0.28071268  -1.06040900
H   -1.83521382  -1.06748199  -2.91860878
H    0.40210296  -0.61692220  -2.99950227
H   -0.02857226   1.13344903  -0.70975498
H    1.50540199   0.88548087  -1.56933201
H    0.29699571  -1.39538099   0.01400831
H    1.99976704  -1.09449512  -0.32858409
H    1.50020125  -0.81283369   2.01754122
C   -0.13214113   0.56475654   1.87845468
O   -1.20745100  -0.32511285   1.76273892
H   -1.54235187  -0.31387884   0.85044987
H   -0.35756933   1.52203877   1.38814792
H   -0.01784189   0.76497304   2.94868928
