22
Energy: 2.82
C    0.32718922   1.84585062   1.30407332
H   -0.35212779   2.36182960   1.97877274
H    1.32668161   2.24890875   1.44859473
H    0.00986788   2.05148733   0.28528415
C    0.31164641   0.34657942   1.58714915
C    1.38819293  -0.41378488   0.79549225
C    1.38430864  -0.21625421  -0.72039907
N    0.20761794  -0.76061055  -1.35986120
C   -0.62804763  -0.00105748  -2.08489036
O   -0.47003315   1.16929452  -2.33943896
H   -1.49814963  -0.57676479  -2.45338426
H   -0.06790095  -1.69285868  -1.09262951
H    1.42387289   0.84153175  -0.98431039
H    2.27245892  -0.70939053  -1.13447968
H    1.28231144  -1.48192181   1.00370125
H    2.36648415  -0.09936962   1.16498408
H    0.54826665   0.19233401   2.64947594
C   -1.10248326  -0.20761693   1.34300362
O   -1.17038593  -1.61633245   1.38297223
H   -0.94242245  -1.90885794   2.27234497
H   -1.45595959   0.07815075   0.35198484
H   -1.78855421   0.22929517   2.08228274
