22
Energy: 1.959
C   -1.75915513  -1.69297468   1.91938650
H   -2.19194048  -2.66684120   1.70462530
H   -1.33490859  -1.72001616   2.92050181
H   -2.55649687  -0.95285915   1.90231097
C   -0.68732877  -1.34307920   0.89006029
C   -0.09343696   0.04111536   1.18295097
C    1.31479619   0.20870139   0.59050653
N    1.60335970   1.59205171   0.25669873
C    1.06190532   2.16744467  -0.82530515
O    0.34224854   1.61051734  -1.62336264
H    1.34898163   3.22873923  -0.93163633
H    2.11977616   2.15138856   0.91494093
H    2.07388090  -0.14364429   1.28992465
H    1.39094878  -0.37508766  -0.32964496
H   -0.05856121   0.20785614   2.26197394
H   -0.74899816   0.80234848   0.75378846
H    0.11344334  -2.08785500   0.94380995
C   -1.30460543  -1.40219739  -0.52234890
O   -0.39661672  -1.17964599  -1.56633126
H   -0.23627742  -0.22337638  -1.66173919
H   -2.14197690  -0.69223594  -0.57328929
H   -1.70472641  -2.40882694  -0.68371369
