22
Energy: 3.49
C   -0.38082107  -1.48403325   2.67913148
H   -1.34267385  -1.93985027   2.45190851
H    0.33396921  -2.27432202   2.89163277
H   -0.49236389  -0.87463452   3.57355115
C    0.09929412  -0.63354619   1.50326021
C   -0.88009940   0.52851302   1.29436269
C   -0.45566898   1.55061711   0.23099345
N   -1.03206601   1.28642055  -1.07206365
C   -0.30407900   0.94127573  -2.14234940
O    0.89499516   0.78174531  -2.14704534
H   -0.92138374   0.81336390  -3.04921337
H   -2.03208513   1.37653898  -1.15648818
H   -0.76640242   2.55435644   0.53893512
H    0.62878780   1.54765260   0.10620057
H   -0.98275276   1.05160400   2.24718132
H   -1.86436296   0.12887625   1.03554208
H    1.08065006  -0.21870329   1.75702042
C    0.30380963  -1.51284873   0.24567249
O    1.54236361  -1.30572593  -0.37625163
H    1.50610535  -0.51763829  -0.94370136
H   -0.52569379  -1.37191559  -0.46076579
H    0.30640351  -2.56538882   0.54539063
