21
Energy: 0.886
C   -3.13368924   2.25677744   1.56112120
C   -2.42032155   1.03301362   1.27056582
C   -1.86248713  -0.00609533   1.05440863
C   -1.11654031  -1.21461001   0.73235427
O   -0.19014577  -1.03932764  -0.32166105
C    0.86030749  -0.14694771  -0.01442930
C    1.77552005  -0.07825341  -1.24162209
O    2.27111521  -1.36124129  -1.54874363
H    1.52101154  -1.96787413  -1.52249690
C    2.95890095   0.84925844  -1.00150502
H    3.53935160   0.49346082  -0.15443804
H    2.61425442   1.86026413  -0.80473366
H    3.59735787   0.85032280  -1.87988621
H    1.17478881   0.29464082  -2.08806425
H    1.42776619  -0.51861188   0.85336559
H    0.46451161   0.84937096   0.22425199
H   -1.80485554  -1.99247908   0.38569614
H   -0.59712639  -1.57044175   1.63896921
H   -3.19514699   2.87090558   0.66320078
H   -2.61685002   2.81711403   2.33991099
H   -4.14294982   2.02614785   1.90059230
