21
Energy: 0.906
C    2.40857938  -1.78158458   2.63105013
C    2.16456270  -0.99725843   1.44047925
C    2.00758981  -0.34332460   0.44767458
C    1.72168487   0.43832949  -0.74804657
O    0.38504164   0.31868255  -1.19475921
C   -0.55833560   0.85010661  -0.29681906
C   -1.96125411   0.68073809  -0.89822167
O   -2.91732352   1.36651403  -0.12198696
H   -2.99826140   0.91882067   0.72872483
C   -2.30302214  -0.79754469  -1.05702902
H   -1.55424855  -1.27319197  -1.68241205
H   -3.28186646  -0.90832242  -1.51654099
H   -2.31153677  -1.28887905  -0.08453004
H   -1.97931344   1.17186909  -1.87601285
H   -0.36495739   1.92095555  -0.12298142
H   -0.50055418   0.33036242   0.67388077
H    2.33683865   0.07846509  -1.57921738
H    1.96498427   1.49703271  -0.55194998
H    3.47128881  -2.00702191   2.71413947
H    1.85269910  -2.71739670   2.57981214
H    2.09402295  -1.22921251   3.51636050
