21
Energy: 0.967
C    2.92588509  -1.08030619   2.70447290
C    1.59723397  -0.90203416   2.16297601
C    0.47785894  -0.75448124   1.75908585
C   -0.84323158  -0.57944001   1.17406103
O   -0.89809575  -0.92257899  -0.20250827
C   -0.07093892  -0.15118937  -1.04907074
C   -0.72516195   1.19424865  -1.40652245
O   -2.03719125   0.97081725  -1.87377768
H   -2.36084521   0.16830689  -1.44114028
C    0.07199968   1.92520130  -2.47887039
H    1.07404898   2.14391090  -2.12038937
H   -0.43060053   2.85419278  -2.73177269
H    0.13433983   1.31216135  -3.37407026
H   -0.76907777   1.82532725  -0.50073804
H    0.04041261  -0.74759579  -1.95926250
H    0.91542422   0.00564892  -0.59658121
H   -1.17443125   0.45857985   1.33523445
H   -1.55480428  -1.25576159   1.65917968
H    2.86528103  -1.29590085   3.77069848
H    3.51588756  -0.17569012   2.55873457
H    3.42083785  -1.91183492   2.20377301
