21
Energy: 1.334
C   -0.41408469   1.05135537  -3.24470979
C   -0.22991189   1.31424442  -1.83521051
C   -0.09986289   1.54476705  -0.66419742
C    0.10504850   1.76536650   0.76219106
O    0.95617299   0.81914096   1.37911971
C    0.37502512  -0.41723086   1.72206302
C    0.18011723  -1.40167789   0.54726143
O   -1.09996059  -1.27617301  -0.03789349
H   -1.16235165  -0.41077832  -0.46442618
C    0.30816683  -2.84291655   1.02939789
H    0.09451088  -3.51640045   0.20427775
H   -0.41348663  -3.02917545   1.82031881
H    1.31078063  -3.03466351   1.39940955
H    0.95917925  -1.19190377  -0.20252109
H   -0.59643459  -0.26667385   2.21675375
H    1.07345303  -0.85184536   2.44118725
H   -0.87354525   1.79073841   1.27094438
H    0.60160933   2.73256496   0.90287585
H   -1.23704301   1.65254656  -3.63001413
H   -0.64361881  -0.00289156  -3.39865314
H    0.49411704   1.30080953  -3.79226579
