21
Energy: 0.711
C   -1.64903535  -1.16759295   3.52346697
C   -0.87830813  -0.34103713   2.62134333
C   -0.24819508   0.37989301   1.89949474
C    0.53315958   1.17731163   0.96521681
O    1.34186701   0.40251749   0.09472978
C    0.64783229  -0.50790955  -0.72343677
C   -0.05960044   0.14664352  -1.92912332
O   -0.77736857  -0.82680757  -2.65468615
H   -0.14726103  -1.44388006  -3.04528049
C    0.94546938   0.89214394  -2.80356026
H    1.48230582   1.62186937  -2.20407954
H    0.43486795   1.39998424  -3.61796846
H    1.66727570   0.19213468  -3.22266852
H   -0.82884033   0.83913406  -1.57105622
H   -0.09057717  -1.07406082  -0.13900815
H    1.41277810  -1.20128998  -1.08992034
H    1.24160652   1.80390615   1.51742641
H   -0.14619744   1.83067520   0.39516067
H   -1.01594644  -1.94696163   3.94661605
H   -2.47659354  -1.63317775   2.98872119
H   -2.04905244  -0.55840642   4.33341562
