21
Energy: 0.843
C   -1.39309784   3.58203594   0.29369627
C   -0.52165464   2.46479765   0.58792255
C    0.23817727   1.57335294   0.84554118
C    1.08067239   0.42119306   1.13274262
O    0.33895662  -0.76163210   1.40183794
C   -0.45949216  -1.21938174   0.33942096
C    0.33363407  -1.82230477  -0.83749797
O    0.91107520  -0.82776304  -1.65887767
H    0.20387742  -0.29713526  -2.04446036
C   -0.56068751  -2.75333343  -1.65696650
H   -0.01592270  -3.10748343  -2.52878487
H   -1.45044090  -2.22213732  -1.99272792
H   -0.86731714  -3.60885066  -1.06278940
H    1.18626285  -2.38036325  -0.43615317
H   -1.10376819  -0.40691919  -0.03347499
H   -1.08979581  -1.99540093   0.78031172
H    1.65695157   0.60287054   2.04551656
H    1.77262511   0.26318965   0.29332021
H   -2.36482047   3.42828864   0.76259063
H   -1.53016575   3.68147587  -0.78318637
H   -0.95773117   4.50296944   0.68038089
