21
Energy: 0.287
C    2.80910078   1.64270017   0.74533363
C    1.43733861   1.25161110   0.98024956
C    0.30499869   0.91622606   1.19704504
C   -1.08411481   0.51284291   1.37916231
O   -1.78104558   0.28200876   0.16951191
C   -1.69557063  -1.01315640  -0.37676607
C   -0.42437210  -1.32351059  -1.20126172
O    0.66792836  -1.67743788  -0.38449848
H    0.94733868  -0.89061469   0.10650967
C   -0.08935290  -0.17166666  -2.14618499
H    0.05515723   0.74565735  -1.57927040
H   -0.90221242  -0.02093976  -2.85060191
H    0.82128290  -0.39856364  -2.69506353
H   -0.63472439  -2.23074843  -1.78014820
H   -2.56171205  -1.08795975  -1.04014194
H   -1.78848722  -1.77172143   0.41465367
H   -1.62373803   1.32962170   1.87439829
H   -1.12233915  -0.38030689   2.02365347
H    3.25003604   1.00821752  -0.02334705
H    3.38671037   1.53831289   1.66317737
H    2.85057138   2.68043046   0.41596709
