21
Energy: 0.73
C   -0.89507871   1.22507196   3.61061804
C   -0.27088453   0.29369806   2.69782497
C    0.25939804  -0.50530841   1.97789279
C    0.87832853  -1.40449370   1.01369819
O    0.96726594  -0.85317913  -0.28624298
C   -0.28581753  -0.63796400  -0.90108926
C   -0.02268176   0.06248649  -2.23800365
O    0.62807137   1.29233990  -2.01657133
H    1.32521192   1.13083549  -1.36875647
C   -1.31894241   0.33188751  -2.99023284
H   -1.97182818   0.95521683  -2.38508787
H   -1.82397808  -0.60090787  -3.22390044
H   -1.09467791   0.86066370  -3.91178189
H    0.62908044  -0.59277425  -2.84051236
H   -0.91606608  -0.00005623  -0.26524271
H   -0.80269777  -1.59575094  -1.06416234
H    0.31403606  -2.35200924   0.98618686
H    1.91160957  -1.61258471   1.31035582
H   -0.99854205   2.19733174   3.12977785
H   -0.28347046   1.33690971   4.50534258
H   -1.88257282   0.86459132   3.89777024
