21
Energy: 1.343
C    0.44453745  -3.02054199   2.46496870
C    0.30136553  -1.63966426   2.05831196
C    0.20950695  -0.48140849   1.76127896
C    0.04794791   0.89541095   1.31973111
O   -1.00331571   1.07783965   0.38275815
C   -0.93357412   0.28021185  -0.77290582
C    0.30961442   0.54133827  -1.64764571
O    0.59867004   1.91778974  -1.72819610
H   -0.21529009   2.39040328  -1.93832158
C    0.11093577  -0.07972412  -3.03150250
H   -0.04729325  -1.15076450  -2.94297730
H    0.99133594   0.09970364  -3.64289857
H   -0.75152850   0.36343006  -3.52633623
H    1.19295070   0.09436828  -1.17770212
H   -1.83725259   0.54029219  -1.33392015
H   -0.97105130  -0.78784947  -0.51432302
H    0.99974142   1.25971576   0.90440458
H   -0.22919687   1.52701495   2.17023312
H    0.65906611  -3.64574173   1.59835433
H   -0.47467321  -3.36899573   2.93516683
H    1.26329527  -3.11301461   3.17789790
