21
Energy: 0.289
C    1.22343111  -0.88808599  -3.07915352
C    0.93572363   0.10720017  -2.07185959
C    0.72508297   0.93800679  -1.23296721
C    0.36617709   1.89147102  -0.19194738
O   -0.75989462   1.49422392   0.57458503
C   -0.50046211   0.61179617   1.64098447
C   -0.20907701  -0.82754159   1.18050965
O   -1.21867585  -1.26282627   0.29847095
H   -1.44789640  -0.51226822  -0.26629604
C   -0.15549013  -1.77815265   2.36959077
H    0.63746474  -1.48645915   3.05266191
H    0.02953433  -2.78771173   2.01484706
H   -1.10713828  -1.76644015   2.89421608
H    0.76208519  -0.84237748   0.65623056
H   -1.41908383   0.61941436   2.23469783
H    0.33192405   0.97964134   2.25856114
H    0.07582059   2.84013986  -0.65872342
H    1.23199003   2.06822616   0.46551060
H    0.82440304  -0.57272211  -4.04268570
H    0.76245557  -1.83395100  -2.79587015
H    2.29996289  -1.03047506  -3.16906456
