21
Energy: 0.712
C    2.59271279   0.58275386   3.08521801
C    1.97636036  -0.10445178   1.97216976
C    1.50316351  -0.69565154   1.04239229
C    0.84682534  -1.36535076  -0.07122000
O   -0.56812974  -1.27395029  -0.03428468
C   -1.08919081   0.03264536  -0.07134270
C   -1.07187202   0.67309389  -1.47569455
O   -1.55207204   1.99749941  -1.40867190
H   -2.48416590   1.97311053  -1.16175521
C   -1.86435123  -0.17766992  -2.46500738
H   -1.46927333  -1.18949826  -2.47626004
H   -1.80023653   0.24563671  -3.46427980
H   -2.91126609  -0.21955576  -2.16691227
H   -0.03689274   0.77731183  -1.81840872
H   -0.55177752   0.68772805   0.62817513
H   -2.12723611  -0.06489647   0.26515117
H    1.05654657  -2.43950593  -0.03078103
H    1.24366791  -0.96334681  -1.01685521
H    3.54200999   0.10929551   3.33387647
H    1.93816509   0.53984588   3.95526007
H    2.77334334   1.62614510   2.82774955
