21
Energy: 0.0
C   -3.23487571  -1.05299341  -2.19519179
C   -1.90911709  -0.51369621  -1.99129397
C   -0.80770678  -0.05608334  -1.86751131
C    0.51933005   0.48360034  -1.60422275
O    0.79110764   0.65282735  -0.22760963
C    0.86486635  -0.56138228   0.49010020
C    1.05356420  -0.21474280   1.97342546
O   -0.04466969   0.53288175   2.43423814
H   -0.15266053   1.27398834   1.82402904
C    2.37236956   0.52898966   2.19131283
H    3.21344380  -0.11637539   1.95331233
H    2.44739397   0.84243594   3.22922807
H    2.40619365   1.40774700   1.55161576
H    1.04496863  -1.14139121   2.55793958
H    1.70723278  -1.17067652   0.12863261
H   -0.06435130  -1.13351042   0.35889862
H    0.60528983   1.48416204  -2.04122480
H    1.27670117  -0.17500755  -2.06257405
H   -3.17122385  -2.05560111  -2.61744927
H   -3.79649094  -0.41505725  -2.87696363
H   -3.76153053  -1.10221987  -1.24259049
