21
Energy: 0.0
C   -3.32455356  -2.28377872  -0.16147016
C   -1.97087508  -1.96976013   0.23734874
C   -0.84588008  -1.75113999   0.59002600
C    0.51673427  -1.38691784   0.95371636
O    0.99686789  -0.25590917   0.25498835
C    0.32434847   0.94188260   0.58361112
C    0.85536248   2.04348484  -0.34400227
O    0.58500577   1.71253380  -1.68378252
H    0.92778394   0.82034329  -1.82458281
C    2.34958199   2.27335224  -0.11139164
H    2.88637911   1.33555482  -0.23287594
H    2.52134450   2.65354916   0.89178459
H    2.72494746   2.99340115  -0.83371410
H    0.29964053   2.96779967  -0.15105933
H    0.50423136   1.20692899   1.63662894
H   -0.75731138   0.82027026   0.43153998
H    1.20009349  -2.20127896   0.69048068
H    0.56859061  -1.21183927   2.04179695
H   -3.63371244  -1.61737159  -0.96614279
H   -4.00299876  -2.15942627   0.68218531
H   -3.38047449  -3.31319535  -0.51410664
