21
Energy: 0.84
C   -1.33418731   3.42743107  -1.18916376
C   -0.48611605   2.50905014  -0.46013186
C    0.25440023   1.78350501   0.14289308
C    1.07221693   0.83004344   0.87903694
O    0.30483477  -0.13410128   1.58833391
C   -0.48663978  -0.97329016   0.78514034
C    0.31242174  -2.01507832  -0.02371695
O    0.92287707  -1.45112663  -1.16677844
H    0.23253365  -1.12181720  -1.75446257
C   -0.58704163  -3.18954244  -0.41040744
H   -0.03480268  -3.87778306  -1.04573185
H   -1.45903289  -2.83241347  -0.95693112
H   -0.92258617  -3.72103885   0.47498120
H    1.14709273  -2.36959900   0.59038582
H   -1.10525056  -0.37414484   0.09777935
H   -1.14232108  -1.49292199   1.48796063
H    1.64537856   1.35344105   1.65090479
H    1.76691890   0.33828976   0.18339019
H   -2.38183872   3.18652706  -1.00951483
H   -1.13270921   3.35830124  -2.25816034
H   -1.14706363   4.44886324  -0.85915127
