21
Energy: 0.84
C   -3.38608422  -0.15749222   1.80289013
C   -2.45177600  -0.33570013   0.71225352
C   -1.70636381  -0.52387953  -0.20827660
C   -0.74068078  -0.66719115  -1.28832387
O   -0.01531244   0.52652956  -1.55394579
C    0.76645369   1.00022696  -0.48615444
C    2.01245188   0.14496073  -0.18067510
O    1.69129655  -1.03458767   0.52821700
H    1.30384403  -0.78893515   1.37670343
C    3.04801216   0.97291242   0.58118032
H    3.41503324   1.78728950  -0.03612524
H    3.88563362   0.33920673   0.86229009
H    2.60603587   1.38950778   1.48542839
H    2.43736666  -0.20666918  -1.12686485
H    0.15470215   1.09062246   0.42591979
H    1.08552043   1.99781623  -0.79741182
H   -1.26266437  -0.89029315  -2.22427754
H   -0.05543440  -1.49320815  -1.05033274
H   -3.36886432   0.87875930   2.14020677
H   -3.11920522  -0.80646321   2.63702519
H   -4.39505261  -0.40269466   1.47268792
