21
Energy: 0.021
C    0.51115502  -2.39186687  -3.24856801
C    0.18307348  -2.09974543  -1.87088240
C   -0.09949373  -1.90352011  -0.72224681
C   -0.42688797  -1.55964309   0.65475199
O   -0.53246300  -0.16766981   0.87215528
C    0.68983229   0.52361554   0.72149448
C    0.41052491   2.01704011   0.94152181
O   -0.12536301   2.22476104   2.22516107
H   -0.89328368   1.64414765   2.30353514
C   -0.51553570   2.55500881  -0.15007049
H   -0.02390200   2.50816452  -1.11771239
H   -0.77681771   3.58726985   0.06764633
H   -1.42351156   1.95762226  -0.18570292
H    1.36134151   2.56109915   0.92899637
H    1.10809295   0.35764235  -0.28044049
H    1.41510135   0.16567052   1.46897694
H    0.33298995  -1.99373126   1.32717264
H   -1.40899135  -1.96917694   0.91389927
H    0.07371528  -1.63682997  -3.90112688
H    0.11575805  -3.36883322  -3.52474724
H    1.59239365  -2.39568061  -3.38475508
