21
Energy: 1.347
C   -0.24085866  -2.56408696  -2.98344237
C    0.39226465  -1.76203607  -1.95946597
C    0.95637234  -1.09524742  -1.13763573
C    1.55989894  -0.28975630  -0.08692223
O    0.88608407  -0.37640110   1.15977286
C   -0.48037162  -0.04648964   1.13651975
C   -0.77064514   1.41724148   0.74640464
O    0.15161255   2.29841558   1.34429727
H    0.22403521   2.07801801   2.28036664
C   -2.21393746   1.77421919   1.10668505
H   -2.90447310   1.12089345   0.58101938
H   -2.41675178   2.80440985   0.82623683
H   -2.37547370   1.66787275   2.17798616
H   -0.62795617   1.54836778  -0.33218121
H   -0.81766769  -0.22519953   2.16285322
H   -1.03298390  -0.71378708   0.45958243
H    1.62121855   0.75766078  -0.41888990
H    2.57195644  -0.65204479   0.12176349
H   -0.62087463  -1.92454879  -3.77986036
H   -1.07043779  -3.12502915  -2.55365941
H    0.47805249  -3.26615164  -3.40474929
