21
Energy: 0.905
C    1.93314999   0.21748703   3.45692544
C    0.75681932  -0.06186842   2.66294246
C   -0.24040728  -0.30601411   2.04346276
C   -1.40397726  -0.56743669   1.20658341
O   -1.30564787  -0.00069355  -0.08567270
C   -0.28524873  -0.56633651  -0.87157624
C   -0.26142842   0.14303964  -2.23339285
O    0.61236288  -0.51858856  -3.11971938
H    1.51610735  -0.39884397  -2.80411725
C    0.09768257   1.61616927  -2.06467282
H    1.09433386   1.71413652  -1.63527143
H   -0.61808137   2.08533100  -1.39712952
H    0.07786789   2.11930217  -3.02798615
H   -1.25324572   0.05323478  -2.68702315
H   -0.46816420  -1.64218431  -1.02513781
H    0.69144009  -0.45304748  -0.37273472
H   -2.29134898  -0.10973815   1.65578636
H   -1.55854238  -1.65796382   1.13472703
H    1.67924348   0.19340125   4.51616306
H    2.32128719   1.20529932   3.20996657
H    2.70482668  -0.52683070   3.26109766
