21
Energy: 0.967
C    3.16044137  -2.27098542  -1.41189696
C    2.40265582  -1.43977902  -0.50347465
C    1.81434488  -0.73855199   0.27120842
C    1.01581811   0.07991668   1.17169407
O   -0.35249090  -0.29658520   1.20746445
C   -1.04364520  -0.17034431  -0.01832783
C   -1.50912705   1.27613555  -0.25714323
O   -2.20124680   1.74207887   0.88017806
H   -1.82939748   1.28449193   1.64714954
C   -2.42306853   1.36609971  -1.47211246
H   -3.29333343   0.73160573  -1.32671711
H   -1.89284622   1.05245240  -2.36704955
H   -2.76061977   2.39113733  -1.59432759
H   -0.62441019   1.91596764  -0.42632539
H   -1.92093829  -0.81626574   0.08043569
H   -0.42749653  -0.52282525  -0.85397161
H    1.12624512   1.13903408   0.89030497
H    1.36889204  -0.05033574   2.20004191
H    3.19673971  -1.81274345  -2.39998012
H    2.69299007  -3.25190984  -1.49217504
H    4.17729610  -2.39402689  -1.04056244
