21
Energy: 1.849
C    2.21283493   2.96172252   1.40395593
C    2.01698423   1.58035580   1.02272498
C    1.89850561   0.42741269   0.71542934
C    1.65521739  -0.95600028   0.32885043
O    0.28175171  -1.27474516   0.21632056
C   -0.36273286  -0.60264319  -0.83952820
C   -1.84651873  -0.96948733  -0.81548489
O   -2.40794904  -0.46998434  -2.01298658
H   -3.36373041  -0.58539532  -1.97086286
C   -2.52949629  -0.39606299   0.42231100
H   -2.51085718   0.69106893   0.38371441
H   -1.99700200  -0.72858525   1.30799662
H   -3.56378178  -0.73111299   0.48260891
H   -1.92200366  -2.06887402  -0.79516440
H    0.06357647  -0.90222901  -1.80898325
H   -0.25120838   0.48557836  -0.73728183
H    2.04541473  -1.62811503   1.10038014
H    2.17425941  -1.16081551  -0.62328407
H    1.57203922   3.20852185   2.25003221
H    1.96813546   3.61855985   0.56950099
H    3.25202989   3.12371291   1.68860629
