21
Energy: 0.893
C   -1.71111599  -3.68531813  -0.88695979
C   -1.10742415  -2.41246975  -1.21300086
C   -0.60669211  -1.36930271  -1.52732250
C   -0.00277723  -0.07434173  -1.80840542
O   -0.09257449   0.83401881  -0.72813294
C    0.63133612   0.43180458   0.41573170
C    0.43891770   1.51427583   1.48310650
O    0.90729123   2.75466468   1.00546814
H    0.54997726   2.86871586   0.11632392
C    1.19401801   1.17522382   2.76107526
H    1.05345513   1.97385803   3.48330411
H    2.25600338   1.08637982   2.54821811
H    0.82974149   0.24170495   3.18001628
H   -0.64078536   1.58762890   1.69576607
H    1.70078834   0.33655628   0.17004188
H    0.26697761  -0.53696175   0.78313158
H   -0.53157997   0.40865341  -2.63670005
H    1.05343312  -0.22305531  -2.09247515
H   -2.17930274  -3.63025717   0.09542157
H   -0.95275602  -4.46777742  -0.87464301
H   -2.47066659  -3.93815747  -1.62602043
