21
Energy: 1.762
C   -0.54915452  -3.24024521  -0.81231315
C   -0.66247856  -1.81531908  -1.02277161
C   -0.79278053  -0.63434563  -1.19005137
C   -0.82047524   0.81187563  -1.36329246
O    0.37274271   1.44152197  -0.92139842
C    0.39098298   1.96929189   0.38317477
C    0.67636978   0.92299108   1.48947165
O    1.62285908  -0.01240883   1.03712230
H    1.41115870  -0.21160350   0.11324509
C   -0.59711075   0.24156831   2.00358247
H   -1.09235324  -0.31084990   1.20959423
H   -1.27953443   0.98344518   2.41115655
H   -0.33085462  -0.45875816   2.79111318
H    1.14863591   1.44574159   2.33075143
H   -0.54306942   2.50253677   0.60702047
H    1.21297400   2.69056995   0.36102419
H   -1.69693030   1.23819343  -0.85357316
H   -0.89320573   1.03678692  -2.43531587
H   -0.18948876  -3.72514274  -1.71918657
H   -1.51970570  -3.65800828  -0.54623869
H    0.15418970  -3.43346843  -0.00277857
