21
Energy: 1.271
C   -3.09872996   1.61049269   0.43209532
C   -2.20786992   0.72860028  -0.28956077
C   -1.47094303   0.01112253  -0.90614364
C   -0.56703624  -0.89558029  -1.60192077
O    0.35207036  -1.56277987  -0.75580477
C    1.51687922  -0.85048349  -0.43587774
C    1.31875171   0.29093959   0.57428607
O    2.59208977   0.88610859   0.73927684
H    2.54029032   1.51860431   1.46428556
C    0.75375514  -0.23691100   1.88893333
H   -0.16830316  -0.77604475   1.69157571
H    0.54419051   0.58247880   2.57492752
H    1.46783264  -0.91407650   2.35242326
H    0.61878555   1.02895036   0.14943622
H    1.98478356  -0.43245205  -1.33940086
H    2.19921368  -1.58497788  -0.00039871
H   -0.02978304  -0.34253642  -2.38932225
H   -1.15879037  -1.69185912  -2.06951389
H   -3.00519035   2.62907730   0.05605967
H   -2.84852111   1.59999989   1.49268339
H   -4.12999511   1.28087170   0.30974869
