21
Energy: 1.41
C    2.98109688   1.62367792  -2.79966178
C    1.75038227   1.48460011  -2.05433707
C    0.71977607   1.39325711  -1.44960264
C   -0.50946379   1.23947274  -0.69322829
O   -0.41757506   0.08989963   0.12359754
C   -1.57154606  -0.13232448   0.89845499
C   -1.31392589  -1.37323352   1.76620939
O   -0.19990524  -1.15444459   2.59505437
H    0.52779426  -0.88711110   2.01822363
C   -1.12972536  -2.61269059   0.88959248
H   -0.85743535  -3.46164270   1.51107950
H   -0.33786514  -2.43267416   0.16617730
H   -2.05021567  -2.84129441   0.35953229
H   -2.16278744  -1.51469453   2.44440464
H   -2.45004739  -0.29177682   0.25461146
H   -1.76746154   0.73740812   1.54523674
H   -1.36189849   1.14320583  -1.38831019
H   -0.67480398   2.13579899  -0.06971321
H    3.62085379   0.76109218  -2.61699391
H    3.50664082   2.52624335  -2.48927053
H    2.76701808   1.68583816  -3.86619812
