21
Energy: 1.346
C   -2.10703564   0.45612719   3.26792781
C   -1.75884048  -0.07803979   1.96942079
C   -1.51782097  -0.52844081   0.88442242
C   -1.12935722  -1.05493875  -0.41500233
O    0.23889062  -1.42566857  -0.49839875
C    1.16334478  -0.42116145  -0.16221633
C    1.11462070   0.81734906  -1.07985238
O    0.95006122   0.44854434  -2.42953034
H    1.58637847  -0.24560197  -2.63772196
C    2.36908752   1.66779168  -0.87180833
H    2.32837221   2.54318757  -1.51456473
H    3.26132916   1.09575817  -1.12038762
H    2.43631006   1.99052239   0.16323838
H    0.23021762   1.41904825  -0.84175894
H    2.13832155  -0.91021809  -0.25849653
H    1.02905839  -0.09875722   0.88044616
H   -1.37551755  -0.31898988  -1.19535872
H   -1.67789423  -1.98045746  -0.61901195
H   -2.03371697  -0.32372003   4.02556387
H   -3.12783198   0.83690609   3.24974521
H   -1.43157339   1.27033662   3.53026485
