21
Energy: 0.886
C   -0.68464692   0.49366478  -4.08774362
C    0.06507642   0.63112507  -2.85893301
C    0.72112274   0.76469732  -1.86424169
C    1.44098760   0.89229479  -0.60479936
O    0.61637297   0.73765231   0.53360988
C    0.06907337  -0.55697898   0.66946097
C   -0.77023151  -0.56599177   1.95163671
O    0.03441431  -0.23204295   3.05930257
H    0.55162474   0.54349962   2.80950661
C   -1.38857993  -1.93467231   2.20219363
H   -2.05367876  -2.20506573   1.38712583
H   -1.94897373  -1.90955385   3.13205182
H   -0.60453202  -2.68185134   2.29283786
H   -1.56666542   0.18827605   1.83692567
H    0.87780012  -1.30056714   0.74849516
H   -0.55534605  -0.80673406  -0.19894501
H    1.86294153   1.89928939  -0.52110335
H    2.26156239   0.15437014  -0.58200665
H   -1.72823117   0.75531034  -3.91543569
H   -0.63087657  -0.53350979  -4.44778603
H   -0.27533523   1.15789426  -4.84825587
