21
Energy: 0.712
C    1.35249900   2.51081731  -2.91790357
C    0.98727237   1.25506984  -2.30085229
C    0.67679411   0.19613106  -1.83155605
C    0.31744032  -1.05071597  -1.17139050
O    0.77720541  -1.13558874   0.16768300
C    0.28210948  -0.14705267   1.03825553
C   -1.16307806  -0.40335946   1.51616422
O   -1.60166256   0.66501896   2.32574583
H   -1.07498184   0.67305259   3.13376048
C   -1.26193943  -1.74778012   2.23255882
H   -2.29166739  -1.95064769   2.51601450
H   -0.64486201  -1.73900433   3.13021168
H   -0.90586893  -2.53829565   1.57809039
H   -1.84149240  -0.38815805   0.65651307
H    0.33525149   0.84648444   0.57216133
H    0.95405799  -0.16576320   1.90337021
H    0.79804099  -1.89087146  -1.68378192
H   -0.77477544  -1.18347586  -1.22301002
H    0.75342004   3.32024320  -2.50136259
H    1.17947144   2.45936900  -3.99240788
H    2.40669315   2.72054532  -2.73912503
