21
Energy: 1.096
C    0.66110722  -2.55893743   3.17972763
C    0.96286355  -1.41732788   2.34505983
C    1.24898216  -0.46386800   1.67662239
C    1.50901189   0.67982610   0.81302972
O    0.38042262   1.09524342   0.06781589
C   -0.06485205   0.13810475  -0.86187899
C   -1.31598403   0.68167280  -1.56737851
O   -1.90953155  -0.31858728  -2.36359496
H   -1.31932987  -0.51333720  -3.10148018
C   -0.98197684   1.93364736  -2.37327127
H   -0.25835722   1.69903132  -3.15362261
H   -0.55626568   2.68218438  -1.71247398
H   -1.88115124   2.33118935  -2.83684664
H   -2.06147344   0.92146187  -0.80322485
H   -0.31449319  -0.80707699  -0.35819657
H    0.72682172  -0.06787372  -1.60489918
H    2.34461381   0.43469324   0.13383722
H    1.78673960   1.54670459   1.42143284
H   -0.39572716  -2.80904440   3.09197444
H    0.88441406  -2.32950066   4.22119169
H    1.25533087  -3.41819536   2.86961072
