21
Energy: 0.97
C    0.85255026  -0.08532947   4.02772420
C    0.05607798  -0.15268559   2.82295598
C   -0.64246019  -0.19506045   1.84916110
C   -1.41030859  -0.27279666   0.61526757
O   -0.75215976  -0.99745724  -0.41313514
C    0.48715578  -0.46237604  -0.82963055
C    0.29928121   0.69938027  -1.81993862
O   -0.56868267   0.29896041  -2.85731952
H   -1.16979512  -0.36227005  -2.48676568
C    1.63156939   1.13145784  -2.41831764
H    2.29981801   1.48246937  -1.63681529
H    1.46336734   1.93091472  -3.13396162
H    2.09115141   0.29477250  -2.93777373
H   -0.14889767   1.55746143  -1.28756001
H    0.99658671  -1.28651123  -1.33738869
H    1.08545105  -0.14318633   0.03202789
H   -1.65968124   0.74686741   0.28148033
H   -2.34050174  -0.82268941   0.79266571
H    1.29664059  -1.05870404   4.23372617
H    0.22464293   0.20206375   4.87043555
H    1.64778655   0.65075751   3.91157645
