21
Energy: 0.201
C   -0.63424065   3.41747337   0.32059986
C   -1.06418355   2.03708128   0.33935240
C   -1.43275086   0.89603415   0.33726786
C   -1.83320893  -0.50430757   0.36835662
O   -0.80766149  -1.39606545   0.76745463
C    0.10127499  -1.77046397  -0.23445953
C    1.12850928  -0.68547207  -0.61902401
O    1.95967064  -1.16097280  -1.65586818
H    2.51093880  -1.87063686  -1.30499527
C    1.92717680  -0.24171246   0.60257040
H    2.47573877  -1.08485472   1.02093708
H    1.24843002   0.14302294   1.35790089
H    2.63387439   0.53648804   0.32585141
H    0.60363066   0.17291725  -1.04999303
H   -0.43056886  -2.08689166  -1.14559299
H    0.63244530  -2.63653809   0.17684617
H   -2.22547005  -0.79276264  -0.62049369
H   -2.62665808  -0.62980913   1.11473548
H    0.33774387   3.49625513  -0.16577056
H   -0.55391168   3.79805557   1.33837726
H   -1.35438285   4.02336216  -0.22841633
