21
Energy: 1.689381
 C          2.4948915874       -0.8752726046       -1.1235817002
 C          2.2899038118       -0.1910528890        0.2264877294
 O          3.1868437416        0.8959149509        0.3885937958
 C          0.8760606779        0.2678779841        0.4751164886
 C         -0.1856357455        0.0108957516       -0.2681805285
 C         -1.5645469356        0.5219650099        0.0442755735
 C         -2.0538596014        1.4832488872       -1.0378399181
 O         -2.5154382443       -0.5283198371        0.0530650920
 O         -2.2411334410       -1.4052448227        1.1479334317
 H          1.9199094693       -1.7948438196       -1.1728141872
 H          2.1887068003       -0.2174686228       -1.9354982729
 H          3.5484186472       -1.1149370591       -1.2473232243
 H          2.5688992207       -0.8856988020        1.0301133861
 H          3.0070292964        1.5422450654       -0.3037628119
 H          0.7795220022        0.8903406194        1.3561612301
 H         -0.1337042935       -0.6150881411       -1.1466433839
 H         -1.5676462268        1.0159537088        1.0265325038
 H         -3.0601594072        1.8210344115       -0.8067559769
 H         -2.0679736980        0.9766665024       -1.9991319824
 H         -1.3879470145        2.3393543212       -1.0904387589
 H         -3.0042033690       -1.9963719852        1.1208185336
