21
Energy: 1.082077
 C          3.0595985490       -0.3890652861        1.0731321443
 C          2.3251184692        0.2901134887       -0.0886564475
 O          2.8709403172       -0.0947676947       -1.3345723074
 C          0.8566591391       -0.0259567703       -0.0183261307
 C         -0.0901434583        0.8631761392        0.2237683089
 C         -1.5597622385        0.5646674366        0.2864956108
 C         -2.3000433221        1.2689358022       -0.8563835111
 O         -1.7213473001       -0.8388112570        0.2284373821
 O         -3.0720715568       -1.1613495820        0.5678785597
 H          2.6870983205       -0.0101158378        2.0205704283
 H          2.9015849254       -1.4660026181        1.0411513782
 H          4.1261019390       -0.1895050668        1.0029982578
 H          2.4792375947        1.3726962474       -0.0399395768
 H          2.7344889528       -1.0432193661       -1.4451963010
 H          0.5923440860       -1.0623415280       -0.1787224666
 H          0.1523781917        1.9052683528        0.3788576868
 H         -1.9635258432        0.9199916874        1.2481685359
 H         -3.3562922391        1.0153048283       -0.8149274202
 H         -1.8926704457        0.9450351578       -1.8110377196
 H         -2.1869737605        2.3450017362       -0.7641254121
 H         -3.0624853318       -2.1252651082        0.5177916341
