21
Energy: 0.822069
 C          2.8744159787       -0.3938448374       -1.2310745594
 C          2.1480311201       -0.3807947733        0.1201386177
 O          2.6266803204        0.6497758778        0.9513065470
 C          0.6599190927       -0.3180708263       -0.1044194530
 C         -0.1561729106        0.5644408924        0.4478172786
 C         -1.6390933524        0.6204226539        0.1803406486
 C         -1.9488140842        1.6254866209       -0.9290705680
 O         -2.1607760546       -0.6182579091       -0.2778062553
 O         -2.2302717474       -1.5544113412        0.7751791049
 H          3.9494095195       -0.4178794816       -1.0699565226
 H          2.5854723781       -1.2657857034       -1.8112530095
 H          2.6244379379        0.5022557931       -1.7977787697
 H          2.3857057895       -1.3054370635        0.6629169883
 H          2.4951470114        1.4900259266        0.4968974799
 H          0.2778730614       -1.0615884569       -0.7920962676
 H          0.2158726633        1.3077232892        1.1387391534
 H         -2.1651130169        0.9074126398        1.1021662991
 H         -3.0205327814        1.6672321217       -1.0997578391
 H         -1.4593096140        1.3108730011       -1.8468485972
 H         -1.5877060407        2.6099625609       -0.6457894086
 H         -1.3916524566       -2.0389512570        0.7353742987
