21
Energy: 1.063999
 C          2.7213191198       -0.9680678176        0.8211528170
 C          2.1537588733        0.1895257202       -0.0094168483
 O          2.7785675866        0.2693702344       -1.2740951489
 C          0.6646565462        0.0379742928       -0.1484112943
 C         -0.2318872670        0.8644758629        0.3629952109
 C         -1.7220109315        0.6870810928        0.2107201948
 C         -2.2398826583        1.4836984451       -0.9863428262
 O         -2.0891048215       -0.6603387653       -0.0452082263
 O         -1.9278565326       -1.4527950235        1.1124935553
 H          2.4901094433       -1.9227155152        0.3495259268
 H          3.8014215572       -0.8715286733        0.8971510215
 H          2.2934727044       -0.9566986411        1.8201037594
 H          2.3873993037        1.1413091447        0.4775847194
 H          2.6021678581       -0.5471675181       -1.7564321319
 H          0.3411724379       -0.8195530257       -0.7288174533
 H          0.0742107608        1.7352714801        0.9246751601
 H         -2.2247352828        1.0218258494        1.1295338719
 H         -3.3147529679        1.3571636894       -1.0765176603
 H         -1.7643446168        1.1212911038       -1.8934461471
 H         -2.0062997904        2.5359161719       -0.8551301383
 H         -1.0608893203       -1.8721508444        1.0071986833
