21
Energy: 1.406305
 C          3.1395929486        0.2558562728        0.9005099429
 C          2.1609254549        0.0867597472       -0.2648927449
 O          2.4038948284       -1.1155851191       -0.9757410189
 C          0.7540956720        0.0042020744        0.2466289602
 C         -0.1897255628        0.9025592205        0.0219509178
 C         -1.6093819735        0.7545823225        0.5155347520
 C         -2.5946458569        1.5033607751       -0.3809550753
 O         -1.9707337078       -0.6056765785        0.6896444664
 O         -1.9957421053       -1.2993562831       -0.5408878606
 H          3.0676527084       -0.5981425750        1.5702412163
 H          4.1618915656        0.3279112173        0.5319478753
 H          2.9034785816        1.1601780439        1.4547032462
 H          2.2571060987        0.9470238411       -0.9479626569
 H          3.3366925663       -1.1538920178       -1.2124140963
 H          0.5451036412       -0.8825975995        0.8308392924
 H          0.0144344233        1.7918767896       -0.5568735908
 H         -1.6853877762        1.1277981061        1.5462877448
 H         -3.6055604860        1.3706585052       -0.0050465869
 H         -2.5461634853        1.1039322417       -1.3912345908
 H         -2.3537293175        2.5623642853       -0.3986918179
 H         -1.0831138976       -1.6033850461       -0.6729571261
