21
Energy: 1.589030
 C          3.1981183642        0.9436047757        0.2548953947
 C          2.2066888560       -0.0311862591       -0.3770204924
 O          2.7632968818       -1.3307406835       -0.2669623369
 C          0.8777508403        0.0371240115        0.3216876460
 C         -0.2489584747        0.4256382788       -0.2485873336
 C         -1.5776540554        0.4707198982        0.4510692942
 C         -2.1245846706        1.8949596603        0.5139062096
 O         -2.5574331027       -0.2647652299       -0.2620953780
 O         -2.1980260631       -1.6480958539       -0.2723414271
 H          3.3275905203        0.7028404385        1.3065730611
 H          4.1602491208        0.8537972678       -0.2412750801
 H          2.8331735968        1.9623256174        0.1585541343
 H          2.0739984290        0.2237233076       -1.4419112032
 H          2.0992926639       -1.9735707394       -0.5381829772
 H          0.8938531722       -0.2806729771        1.3559619178
 H         -0.2736008698        0.7244151024       -1.2881522313
 H         -1.4796676766        0.0509878760        1.4629523729
 H         -3.0919705600        1.9003953279        1.0080888101
 H         -2.2443881042        2.2859086636       -0.4927437746
 H         -1.4320485510        2.5238464213        1.0649872145
 H         -3.0249350311       -2.0636573941       -0.5485286116
