21
Energy: 1.545512
 C          3.1264679991        1.0908066024       -0.4583747023
 C          2.2682544885       -0.1667747864       -0.3367425342
 O          3.0314853804       -1.1295824054        0.3716950105
 C          0.9865242944        0.1396697775        0.3875877156
 C         -0.2147080696        0.0637074781       -0.1569055869
 C         -1.4942493282        0.3893635597        0.5609818533
 C         -2.1072361914        1.6778961299        0.0054275549
 O         -2.4083590586       -0.6907596280        0.5327679043
 O         -2.7760144362       -1.0111999129       -0.8135435625
 H          2.5975878220        1.8494713593       -1.0282280360
 H          3.3542156077        1.4744954112        0.5323689100
 H          4.0597382897        0.8459322146       -0.9573417015
 H          2.0364221180       -0.5480195608       -1.3449735694
 H          2.4818214974       -1.9040493805        0.5308697344
 H          1.1110014446        0.4325107859        1.4220338027
 H         -0.3446473499       -0.2398336742       -1.1865517335
 H         -1.3169552074        0.4860381386        1.6384783924
 H         -3.0268040666        1.9136860088        0.5357557979
 H         -2.3307281833        1.5488730548       -1.0507378694
 H         -1.4029587457        2.4961337316        0.1232718635
 H         -3.6105920363       -1.4771915686       -0.6816670559
