21
Energy: 0.083390
 C          3.0355301115       -0.6087544232        0.9580224583
 C          2.3120746382        0.2913429724       -0.0528504414
 O          2.3651381025       -0.2523498421       -1.3499696055
 C          0.9068376430        0.5547697483        0.4219262222
 C         -0.1803176404        0.3814588099       -0.3087622407
 C         -1.5773914383        0.6111927308        0.1895496127
 C         -2.2754207045        1.7156177813       -0.6001832271
 O         -2.3856637494       -0.5387633086       -0.0043529237
 O         -1.8717287222       -1.6229946614        0.7709268691
 H          2.4873218173       -1.5413276138        1.0831773278
 H          4.0366229201       -0.8341005183        0.5984843135
 H          3.1095300584       -0.1146006262        1.9224980163
 H          2.8468276277        1.2473495471       -0.1298531734
 H          1.9043144103       -1.0998077380       -1.3356025915
 H          0.8353817772        0.9004063940        1.4442132135
 H         -0.1156230905        0.0416190412       -1.3332901243
 H         -1.5551740668        0.8586105181        1.2615085360
 H         -3.2898378584        1.8507139427       -0.2352358499
 H         -2.3148544495        1.4440605156       -1.6514361561
 H         -1.7224201744        2.6433225416       -0.4887012574
 H         -2.6550690275       -2.1766787740        0.8832359397
