21
Energy: 0.627968
 C          3.2028494892        0.7865621526        0.5122376295
 C          2.1979632973        0.0051077194       -0.3400878580
 O          2.6303442230       -1.3230928547       -0.5606470967
 C          0.8428296258        0.0255373290        0.3128041484
 C         -0.2406783447        0.5671752271       -0.2161986575
 C         -1.5995749053        0.5350652731        0.4290454093
 C         -2.2686671545        1.9042700377        0.4003855114
 O         -2.4768503475       -0.3240679728       -0.2965440442
 O         -2.0930341856       -1.6742751611       -0.1481400507
 H          3.2635196890        0.3593919868        1.5122739237
 H          4.1876019954        0.7433275064        0.0536358265
 H          2.8936406072        1.8248760228        0.5942716706
 H          2.1388702446        0.4470260736       -1.3397263753
 H          2.7075306208       -1.7652172696        0.2932428071
 H          0.7918359249       -0.4570739628        1.2819898823
 H         -0.2067146280        1.0300873747       -1.1934770792
 H         -1.5180501308        0.1655426948        1.4606667163
 H         -1.6542490830        2.6216956371        0.9366371372
 H         -3.2486100303        1.8460353056        0.8647171935
 H         -2.3904423719        2.2307436936       -0.6288630117
 H         -1.6155028008       -1.8879434760       -0.9634969067
