21
Energy: 0.895331
 C          2.8282660735       -1.0741189433       -0.8106650600
 C          2.1596087133       -0.2280911778        0.2802526700
 O          2.6498231724        1.0942347751        0.2731602537
 C          0.6627879098       -0.3072757000        0.1423322597
 C         -0.1495074223        0.7343880240        0.1494190812
 C         -1.6435967741        0.6545045868       -0.0077495156
 C         -2.0815846627        1.2465926024       -1.3485855149
 O         -2.1480838661       -0.6697401651       -0.0187672394
 O         -2.0093222746       -1.2836721718        1.2509037897
 H          3.9097249954       -1.0000827500       -0.7242425830
 H          2.5367145463       -2.1156975161       -0.7131008255
 H          2.5300506515       -0.7179471881       -1.7960418697
 H          2.4431384424       -0.6228026441        1.2644521827
 H          2.4441641931        1.4840042561       -0.5846127949
 H          0.2680001788       -1.3066019003        0.0372212833
 H          0.2292508887        1.7387952052        0.2825024685
 H         -2.1157812997        1.2145655796        0.8171818507
 H         -1.7502279533        2.2781127878       -1.4206981980
 H         -3.1636128031        1.2082161363       -1.4400781042
 H         -1.6421169494        0.6680534358       -2.1564295827
 H         -2.9216048716       -1.4165066282        1.5458838408
