21
Energy: 0.904599
 C          3.0423558129       -1.1867884143       -0.1461602641
 C          2.3559599898        0.0959302996        0.3402052941
 O          2.7276532597        1.2041891317       -0.4462433523
 C          0.8647416223       -0.1142092361        0.4022949111
 C         -0.0277025154        0.7058578254       -0.1247124315
 C         -1.5138169676        0.5009174845       -0.1038080942
 C         -2.0631186400        0.3756694625       -1.5295913251
 O         -1.7807408709       -0.6577739573        0.6606197615
 O         -3.1843083675       -0.7371631367        0.9142424717
 H          2.8489272618       -2.0043368546        0.5420170952
 H          2.6660626362       -1.4617234798       -1.1305777735
 H          4.1158819063       -1.0274397016       -0.2130679107
 H          2.7199813229        0.3373135930        1.3473783461
 H          2.4592614231        1.0292626781       -1.3559281782
 H          0.5478614555       -1.0075978155        0.9177494045
 H          0.2810479885        1.6123749773       -0.6274437565
 H         -1.9922764850        1.3634875112        0.3880720359
 H         -3.1340039195        0.1940524662       -1.4892714503
 H         -1.5828813369       -0.4579734633       -2.0366517198
 H         -1.8763437613        1.2916920153       -2.0825401285
 H         -3.2165547799       -1.3381731396        1.6690972607
