21
Energy: 0.352930
 C          3.3124697767       -0.2328753724        1.0344623909
 C          2.4730172148        0.4295170560       -0.0664261546
 O          2.5894496597       -0.2631620360       -1.2853642143
 C          1.0476844770        0.5753951714        0.4016590926
 C         -0.0110746389        0.1610759559       -0.2720081424
 C         -1.4272181635        0.3255520968        0.1923204445
 C         -2.1582439884        1.3735600947       -0.6505003914
 O         -2.0051994488       -0.9606212038        0.0513393647
 O         -3.3089181943       -0.9682990836        0.6404436863
 H          4.3346468217       -0.3632459201        0.6878178805
 H          3.3192830922        0.3820626510        1.9296971475
 H          2.8982650600       -1.2090255844        1.2824756267
 H          2.8793928301        1.4279966107       -0.2746434978
 H          2.2576787829       -1.1594073721       -1.1548885911
 H          0.9384664084        1.0599320229        1.3621067046
 H          0.0915744748       -0.3089793258       -1.2397159987
 H         -1.4591762320        0.6160880517        1.2520195939
 H         -1.6899268981        2.3437718447       -0.5126126682
 H         -3.1987348545        1.4276416743       -0.3403186275
 H         -2.1156306183        1.1002356388       -1.7020569518
 H         -3.5743116831       -1.8872522440        0.5118054670
