21
Energy: 0.903394
 C          3.2331913431        1.0040409723       -0.0676011367
 C          2.1994943126       -0.0649645370       -0.4435875734
 O          2.4402356821       -1.2733014765        0.2382899199
 C          0.8067998959        0.4737444553       -0.2334713166
 C         -0.1221254666       -0.1285248282        0.4883935999
 C         -1.5341046324        0.3443237897        0.7183696197
 C         -1.8866071862        1.6659720717        0.0451373137
 O         -2.4551579906       -0.6854898825        0.3719817982
 O         -2.4108483055       -0.9731109510       -1.0132025548
 H          3.1076460396        1.2953465001        0.9745525078
 H          4.2369192920        0.6085023192       -0.2025819328
 H          3.1146443090        1.8841493728       -0.6929407278
 H          2.3169444831       -0.3185673030       -1.5054170028
 H          2.4222265644       -1.0944929756        1.1858155567
 H          0.6228012586        1.4194231797       -0.7196669105
 H          0.0889961325       -1.0914481575        0.9394365722
 H         -1.7123288159        0.4161939433        1.8007019514
 H         -2.9187964905        1.9185049381        0.2732082102
 H         -1.7859981338        1.5691702095       -1.0326962494
 H         -1.2367038523        2.4573039671        0.4065512047
 H         -1.8847896065       -1.7836791381       -1.0754327472
