21
Energy: 0.951725
 C          2.8582799919       -0.9628933381       -0.9030614809
 C          2.1648981943       -0.2516192436        0.2662435193
 O          2.6453416748        1.0649548251        0.4189951590
 C          0.6709258356       -0.3221495869        0.0938917725
 C         -0.1506257903        0.7058263942        0.2099404564
 C         -1.6414465873        0.6380302070        0.0151190447
 C         -2.0461835780        1.3097371004       -1.2988629543
 O         -2.1436972074       -0.6797223108       -0.0768584791
 O         -2.0953527056       -1.3058996379        1.2060422600
 H          2.5726823398       -0.4987825096       -1.8464067405
 H          3.9373495934       -0.8906422009       -0.7902655429
 H          2.5761765383       -2.0113988243       -0.9300405295
 H          2.4355108999       -0.7548822582        1.2035062505
 H          2.4442048476        1.5522371567       -0.3884997015
 H          0.2876527056       -1.3048860352       -0.1378608091
 H          0.2201149963        1.6889935330        0.4659866956
 H         -2.1325023223        1.1445376335        0.8608421837
 H         -1.7079182701        2.3414530128       -1.3026950687
 H         -3.1260408644        1.2842391481       -1.4154699162
 H         -1.5912939800        0.7776730899       -2.1301780478
 H         -2.7329295130       -2.0239447776        1.1014149672
