21
Energy: 0.000000
 C          3.2151888183       -0.2621931288        1.0035765277
 C          2.3753411849        0.3130773557       -0.1455318424
 O          2.3369378178       -0.5681799801       -1.2413511414
 C          1.0085073641        0.6867790957        0.3673642189
 C         -0.1312576270        0.2685491747       -0.1536424299
 C         -1.4892992757        0.6245007857        0.3787392734
 C         -2.2843051624        1.4247125011       -0.6556440919
 O         -2.1949705273       -0.5245615259        0.8234432194
 O         -2.4003803256       -1.4497743502       -0.2418447412
 H          4.1925117474       -0.5586907564        0.6307781527
 H          3.3457994323        0.4784267039        1.7873506692
 H          2.7198431366       -1.1355100390        1.4252277071
 H          2.8674577876        1.2155178411       -0.5315957007
 H          1.9050999920       -1.3824277576       -0.9563787874
 H          1.0167908621        1.3417465397        1.2281415883
 H         -0.1465633262       -0.3786473048       -1.0194746621
 H         -1.4011419202        1.1884679619        1.3145209920
 H         -1.7456140347        2.3351550429       -0.9010518252
 H         -3.2644676978        1.6828216680       -0.2607955233
 H         -2.4086657286        0.8341928727       -1.5605267789
 H         -3.3365478043       -1.6715859556       -0.1553665832
