21
Energy: 1.561946
 C          2.5710349960       -1.1458739167        0.6604767716
 C          2.1444742236        0.1689741781       -0.0053516156
 O          2.8354088773        0.3769574482       -1.2194152179
 C          0.6558151667        0.1680188617       -0.2173969925
 C         -0.1982487980        0.9110912466        0.4672578620
 C         -1.6985878080        0.8479479222        0.3000807147
 C         -2.1412815257        0.9632358853       -1.1577820028
 O         -2.2468158418       -0.3054918043        0.9299705264
 O         -1.7959089835       -1.5059596489        0.3210377523
 H          2.2596930546       -1.9954096550        0.0539802053
 H          3.6527304466       -1.1700504428        0.7669952456
 H          2.1161349379       -1.2311152300        1.6435476446
 H          2.4341527149        1.0126720795        0.6288446476
 H          2.6112172287       -0.3393445885       -1.8253687647
 H          0.3061515274       -0.5103220542       -0.9848803043
 H          0.1647210035        1.5732490285        1.2411698909
 H         -2.1682951022        1.6386505837        0.8957325513
 H         -3.2248079576        1.0305544232       -1.2086524260
 H         -1.8252151008        0.0833621966       -1.7103737102
 H         -1.7002268133        1.8479918289       -1.6072994874
 H         -1.3487334322       -1.9702217699        1.0413662513
