21
Energy: 0.995167
 C          3.1115865426        1.2946597902        0.1461802811
 C          2.4067222732        0.0316060719       -0.3646033404
 O          3.1910489945       -1.1202809049       -0.1377409620
 C          1.0535107913       -0.0882440194        0.2822800827
 C         -0.0951592463        0.1055285160       -0.3408550955
 C         -1.4372026694        0.0604074559        0.3279915441
 C         -1.9396493336        1.4767786327        0.6272982175
 O         -2.2833225915       -0.6110881810       -0.5861573726
 O         -3.5464009008       -0.8720336614        0.0277698294
 H          3.2109697039        1.2600544413        1.2302278899
 H          4.1032982466        1.3660678282       -0.2935072974
 H          2.5373190590        2.1762636592       -0.1238344243
 H          2.2975137209        0.0855543098       -1.4518743045
 H          3.3145640972       -1.2244824246        0.8132440736
 H          1.0686688312       -0.3349217660        1.3375400574
 H         -0.1270698699        0.3441813503       -1.3937899641
 H         -1.3894213396       -0.5154835037        1.2636478797
 H         -1.9628147673        2.0624533070       -0.2883573693
 H         -1.2808803593        1.9563811041        1.3454507052
 H         -2.9448922870        1.4233946873        1.0373405227
 H         -3.8802953889       -1.6018988440       -0.5087908446
