21
Energy: 1.466929
 C          3.3773893448        0.7499041974        0.7966922290
 C          2.4365414485        0.3246371345       -0.3391409565
 O          2.6311463050       -1.0249843862       -0.6843938900
 C          1.0117004653        0.6514260288        0.0316106699
 C          0.0152225065       -0.2158847166       -0.0027107513
 C         -1.4080559365        0.0581501546        0.3935096058
 C         -1.8412808812        1.5143524558        0.2362731603
 O         -2.1690568125       -0.8091889525       -0.4280405084
 O         -3.5136441949       -0.8729134312        0.0550690410
 H          4.4022974589        0.4947879532        0.5388938510
 H          3.3123400825        1.8210809910        0.9639695333
 H          3.1083738524        0.2341611395        1.7175050654
 H          2.6982176619        0.8828026306       -1.2475715594
 H          2.4335418472       -1.5666931232        0.0886615247
 H          0.8636210219        1.6712073418        0.3541104941
 H          0.1800923898       -1.2260829336       -0.3521192456
 H         -1.5581827786       -0.2502981335        1.4429661486
 H         -1.3366620161        2.1380029383        0.9675815234
 H         -2.9141897578        1.5833942405        0.3990062247
 H         -1.6096088266        1.8665075261       -0.7657432679
 H         -3.9383408924       -1.4107459536       -0.6244908548
