21
Energy: 0.714639
 C          3.1313014455        0.3706428379        0.8593219735
 C          2.1683676960        0.0511188728       -0.2885182366
 O          2.5289024725       -1.1473003058       -0.9467892148
 C          0.7598746602       -0.0250817154        0.2322195983
 C         -0.1849574344        0.8717114995        0.0015724689
 C         -1.5972658672        0.7431614075        0.5237853271
 C         -2.5880234663        1.5353267552       -0.3267209345
 O         -1.9815392987       -0.6150528830        0.6740410022
 O         -2.0780113352       -1.2698653624       -0.5738290071
 H          2.8927839590        1.3404483703        1.2867950372
 H          3.0515210042       -0.3841849904        1.6406531440
 H          4.1537393506        0.3859731416        0.4896594166
 H          2.2403137877        0.8256190464       -1.0584898696
 H          2.5717154806       -1.8549182917       -0.2923924075
 H          0.5423108339       -0.8932486900        0.8454606206
 H          0.0168515275        1.7458632262       -0.5999802942
 H         -1.6393041917        1.0897900419        1.5656214738
 H         -3.5920414730        1.4131498907        0.0707093891
 H         -2.5734892327        1.1649475672       -1.3491105352
 H         -2.3246795811        2.5890140278       -0.3205586850
 H         -1.1730487756       -1.5559799666       -0.7762396597
