21
Energy: 1.668322
 C          2.7683930603       -1.1867017755       -0.2716084287
 C          2.4810979224        0.2150207857        0.2619296522
 O          3.2178784887        1.1942564476       -0.4505135447
 C          1.0184228468        0.5819555945        0.2717780320
 C         -0.0012398112       -0.2186401064        0.0155858983
 C         -1.4315789635        0.2347871402       -0.0111869593
 C         -1.9366291659        0.3569266926       -1.4520892081
 O         -2.1413330739       -0.7582105939        0.7079980963
 O         -3.4955728837       -0.3477309635        0.8956279463
 H          2.3677929779       -1.3013053342       -1.2773656605
 H          3.8440121128       -1.3433644557       -0.3044982643
 H          2.3259959342       -1.9371820187        0.3761861978
 H          2.8600896496        0.2959598492        1.2897009700
 H          2.9494925409        1.1616036681       -1.3759816424
 H          0.8447860917        1.6289885768        0.4872937025
 H          0.1288351520       -1.2675429739       -0.2011444573
 H         -1.5462470892        1.2014896124        0.4998975897
 H         -2.9960939848        0.5995278812       -1.4429558057
 H         -1.7962140087       -0.5853932626       -1.9760779683
 H         -1.3911994736        1.1424023807       -1.9673347507
 H         -3.7316066849       -0.7986146724        1.7161484839
