21
Energy: 1.672382
 C          2.8077296191        0.4117247305        0.9353577729
 C          2.1527685199        0.1133444963       -0.4128504573
 O          2.5983354925       -1.1291404051       -0.9302371086
 C          0.6480089123        0.1430482989       -0.3812935515
 C         -0.1218705306        0.5743732754        0.6020392476
 C         -1.6284491923        0.5486970395        0.5556207793
 C         -2.1831040171        1.9199852136        0.1674128385
 O         -2.1460955855       -0.3451162923       -0.4072426154
 O         -1.8950304310       -1.6894299537        0.0118216040
 H          3.8841330045        0.2858206220        0.8454108034
 H          2.6002664996        1.4326223474        1.2419672430
 H          2.4380062667       -0.2726798750        1.6968833177
 H          2.4986045061        0.8479737078       -1.1530491544
 H          2.2824003897       -1.8278832264       -0.3456552879
 H          0.1923688613       -0.2722697572       -1.2710721166
 H          0.2844387660        0.9974216177        1.5082750335
 H         -2.0102386017        0.2561889660        1.5461257219
 H         -3.2692461468        1.8961297251        0.1634811377
 H         -1.8321060230        2.1802893090       -0.8273619282
 H         -1.8397413793        2.6673126335        0.8762138007
 H         -2.2874369077       -2.1953510946       -0.7110091259
