21
Energy: 1.602138
 C          3.1011641648       -0.4534817197        0.9745366321
 C          2.3856957040        0.3606101456       -0.1054107292
 O          2.3817231361       -0.4146345044       -1.2838353062
 C          1.0063164127        0.7391883988        0.3669877565
 C         -0.1174493585        0.2376378885       -0.1149989509
 C         -1.4913137280        0.6220517722        0.3573053815
 C         -2.2638312999        1.3363715011       -0.7536827553
 O         -2.2107827551       -0.4887726678        0.8678676836
 O         -2.4309241469       -1.4714227323       -0.1389320939
 H          2.5447122061       -1.3673237279        1.1633635919
 H          4.0968135182       -0.7167838371        0.6292669158
 H          3.1760036327        0.1206966765        1.8933384286
 H          2.9555329915        1.2922891279       -0.2798424640
 H          1.8795410499        0.0512080419       -1.9608008410
 H          0.9897157182        1.4697477161        1.1643791788
 H         -0.0997897761       -0.5077203321       -0.8993719569
 H         -1.4258725630        1.2573294596        1.2480931157
 H         -3.2446022956        1.6320359432       -0.3907784326
 H         -2.3934087691        0.6620004515       -1.5965483138
 H         -1.7161873352        2.2174622562       -1.0765656568
 H         -2.1160758036       -2.2845125594        0.2775365959
