21
Energy: 1.349779
 C          2.4672801122       -1.2962258662       -0.4518452571
 C          2.3777713199        0.0643365695        0.2362835619
 O          3.2323331530        1.0090597507       -0.3871831408
 C          0.9778409275        0.6176086773        0.3235718167
 C         -0.1431771661       -0.0128018402        0.0216642887
 C         -1.5065112370        0.6158625614        0.1091805672
 C         -2.1111334737        0.7831446121       -1.2877516557
 O         -2.3663406487       -0.0989240676        0.9754989042
 O         -2.5778692894       -1.4320333595        0.4921708496
 H          2.0404933160       -1.2461760820       -1.4522084133
 H          3.5115252854       -1.5892231478       -0.5318735038
 H          1.9370440822       -2.0483093115        0.1241931311
 H          2.7769518549       -0.0188020509        1.2562874677
 H          2.9501502335        1.1134790185       -1.3031159804
 H          0.9484269124        1.6507450603        0.6480748678
 H         -0.1555997266       -1.0428600548       -0.3007234208
 H         -1.4526969911        1.5845480353        0.6197474196
 H         -3.0932388582        1.2438673407       -1.2160320655
 H         -2.2133357415       -0.1914618750       -1.7583632904
 H         -1.4631206412        1.4089368042       -1.8946163231
 H         -3.1852306656       -1.7788169331        1.1564500678
