21
Energy: 0.629047
 C          3.1086525023        1.1371816386       -0.3367954904
 C          2.2677709626       -0.1450521026       -0.3331293487
 O          2.9826140736       -1.2263510189        0.2291617828
 C          0.9760537705        0.0968280412        0.3993985124
 C         -0.2157064569        0.1234015195       -0.1697874842
 C         -1.5014383219        0.3967570306        0.5605593715
 C         -2.1554565193        1.6763887559        0.0364611034
 O         -2.3902151564       -0.7079058487        0.5118902227
 O         -2.7751454667       -1.0082239948       -0.8251964883
 H          3.3076064536        1.4618930152        0.6836373349
 H          4.0567517497        0.9543897457       -0.8364107558
 H          2.5781121140        1.9290835240       -0.8579579860
 H          2.0624834014       -0.4528854295       -1.3630253007
 H          3.1902338827       -1.0118971492        1.1463860011
 H          1.0768388672        0.2666788791        1.4651514558
 H         -0.3247339383       -0.0512323198       -1.2315353159
 H         -1.3212893027        0.4712321680        1.6391573870
 H         -3.0649185612        1.8825698494        0.5944489175
 H         -2.4111771041        1.5483039961       -1.0122913297
 H         -1.4680977624        2.5111547677        0.1405012195
 H         -2.5847731578       -1.9526848302       -0.8997404008
