21
Energy: 0.764708
 C          2.7455582726       -0.7937870827        0.9479348285
 C          2.1559647435        0.1834742737       -0.0759122695
 O          2.7393579445        0.0040469873       -1.3514198554
 C          0.6643946464        0.0157248004       -0.1321370733
 C         -0.2113737360        0.8979112799        0.3134729859
 C         -1.7044042573        0.7111787084        0.2620102922
 C         -2.3234292756        1.5912775759       -0.8247782517
 O         -2.0995010026       -0.6074106950       -0.0723701235
 O         -1.7540675733       -1.5201393037        0.9576396246
 H          3.8292635958       -0.7050654511        0.9628633555
 H          2.3545000829       -0.5752593114        1.9375269942
 H          2.4792668637       -1.8169658935        0.6876154566
 H          2.4104080368        1.2104995508        0.2050555210
 H          2.5226558329       -0.8842333076       -1.6588970948
 H          0.3183190840       -0.9152717602       -0.5617310430
 H          0.1073388703        1.8344067545        0.7497700607
 H         -2.1298662502        0.9765335510        1.2446082131
 H         -3.4024204993        1.4639394770       -0.8413395500
 H         -1.9197542716        1.3027930538       -1.7910578262
 H         -2.0846182119        2.6326649782       -0.6323287552
 H         -2.6080592863       -1.8676806672        1.2513543876
