21
Energy: 0.371762
 C          2.7020352473       -1.3794025609        0.2464980435
 C          2.2256563425        0.0784655203        0.2441749820
 O          2.6031353817        0.7382380185       -0.9433629255
 C          0.7441360637        0.1304029871        0.5063560534
 C         -0.1245608397        0.8081441225       -0.2225946992
 C         -1.6092686499        0.8367478024        0.0252493830
 C         -2.3858978848        0.7203479009       -1.2906799488
 O         -2.0423279423       -0.1078599500        0.9847497190
 O         -1.8321906766       -1.4437985912        0.5382063156
 H          3.7661493742       -1.4205511364        0.0259575420
 H          2.5236215654       -1.8337680468        1.2165491699
 H          2.1625929816       -1.9488445029       -0.5090469346
 H          2.7434077450        0.6272235267        1.0417582477
 H          2.1921861895        0.2753169638       -1.6829425251
 H          0.4119710552       -0.4540996219        1.3510612055
 H          0.2002948615        1.4083785622       -1.0612554413
 H         -1.8778527898        1.7762789832        0.5290783105
 H         -3.4564752497        0.7436832502       -1.0984238847
 H         -2.1335096560       -0.2158211867       -1.7844599860
 H         -2.1276268226        1.5463478257       -1.9462999321
 H         -2.7186396324       -1.8286780249        0.5687010417
