21
Energy: 1.213898
 C          2.5781725715       -1.3764848292       -0.2815518504
 C          2.2170789404        0.0502301404        0.1485626043
 O          3.1332571368        0.9922877047       -0.3723158474
 C          0.8075860203        0.3601671475       -0.2766099068
 C         -0.2068809340        0.4789874040        0.5607965422
 C         -1.6464008182        0.7397463846        0.2021650831
 C         -1.9377088069        0.7729048679       -1.2954791841
 O         -2.4934983612       -0.1708938274        0.8810251900
 O         -2.2027796680       -1.5126161063        0.4671590657
 H          1.9065371510       -2.0864936219        0.1923923045
 H          2.4878442832       -1.4790999946       -1.3621525628
 H          3.6016784946       -1.6027341208        0.0073206405
 H          2.3114729338        0.1419106652        1.2348012130
 H          3.1053622615        0.9432232222       -1.3352372668
 H          0.6736776045        0.4803933117       -1.3430361548
 H         -0.0470776213        0.3463857392        1.6231656513
 H         -1.9605312584        1.6871507739        0.6642318941
 H         -3.0011747487        0.9364975349       -1.4522999397
 H         -1.6605861521       -0.1770930466       -1.7445842249
 H         -1.3827468123        1.5789073101       -1.7654447473
 H         -2.8142384094       -2.0176124973        1.0169032739
