21
Energy: 1.635120
 C          3.0179708400       -1.0931948785       -0.4964443770
 C          2.4043507554        0.1167803062        0.2179681964
 O          3.1849845234        1.2782847518        0.0230025006
 C          0.9909365468        0.3203790487       -0.2571463372
 C         -0.0779364131        0.1234671069        0.4940029163
 C         -1.5077163187        0.3102201858        0.0694060337
 C         -1.7368941935        0.3020028447       -1.4398055961
 O         -2.2005430905       -0.7474579787        0.7104528242
 O         -3.6089053226       -0.5060403769        0.6482693283
 H          2.4531464310       -1.9899690202       -0.2585423024
 H          3.0005647738       -0.9444149175       -1.5752836692
 H          4.0491433813       -1.2257847943       -0.1784431918
 H          2.4169258536       -0.0489252303        1.2993299623
 H          3.2182309727        1.4689372638       -0.9219954022
 H          0.9015629305        0.6546033420       -1.2821920788
 H          0.0289112893       -0.2092727264        1.5171693130
 H         -1.8805491291        1.2622401185        0.4851615937
 H         -2.8069119051        0.2993715332       -1.6326118944
 H         -1.2960969164       -0.5884144075       -1.8811853582
 H         -1.3029731726        1.1893361784       -1.8903345846
 H         -3.9521623816       -1.2103240736        1.2120967307
