21
Energy: 0.476104
 C          3.0245162840       -0.2256891330        1.0424022887
 C          2.1760205843        0.1454361134       -0.1793008747
 O          2.5281329350       -0.6359330895       -1.3046342242
 C          0.7181803751       -0.0099661242        0.1482055073
 C         -0.1645502215        0.9720399773        0.1347700475
 C         -1.6290939647        0.8195696133        0.4500687344
 C         -2.4855316723        1.3644032244       -0.6989971811
 O         -2.0081221749       -0.4903753151        0.8284402093
 O         -1.8871608363       -1.4190360407       -0.2387405097
 H          2.8117514666       -1.2475376981        1.3524690857
 H          4.0806040850       -0.1479355002        0.7959153924
 H          2.8005233876        0.4435302496        1.8685806282
 H          2.3899080384        1.1767226775       -0.4782155971
 H          2.2789008138       -1.5504701877       -1.1255816823
 H          0.4062756138       -1.0159486206        0.3948377857
 H          0.1279455172        1.9814033487       -0.1201439604
 H         -1.8596187904        1.3690431989        1.3738401703
 H         -3.5427823514        1.2522774737       -0.4670867261
 H         -2.2578267320        0.8226723680       -1.6146416923
 H         -2.2682802186        2.4168495801       -0.8527207187
 H         -2.8030979320       -1.6297857799       -0.4693638280
