21
Energy: 1.742600
 C          2.8685198262       -0.9025565578        0.8130637558
 C          2.3197211991        0.3055845850        0.0513520720
 O          2.4643794059        0.0362835709       -1.3263306809
 C          0.8945142872        0.5664011214        0.4620407596
 C         -0.1615623287        0.3573201609       -0.3055700309
 C         -1.5814250069        0.5970825925        0.1249014285
 C         -2.2857884690        1.5792545892       -0.8069622294
 O         -2.3502665826       -0.5988648412        0.0437071069
 O         -1.9277991908       -1.5345638370        1.0157089721
 H          3.9025133077       -1.0724205117        0.5269668605
 H          2.8117443767       -0.7315675755        1.8839616497
 H          2.2875269605       -1.7841413435        0.5568233068
 H          2.9213233436        1.1938105668        0.3187276034
 H          2.0892468661        0.7681453050       -1.8273504625
 H          0.7779851003        0.9402053651        1.4701815351
 H         -0.0493169418       -0.0457500996       -1.3042047101
 H         -1.6027969045        0.9655174203        1.1598782848
 H         -2.2857687376        1.1879753625       -1.8208821393
 H         -1.7698458016        2.5349316496       -0.7879485305
 H         -3.3146778889        1.7159477004       -0.4874414923
 H         -1.4540916451       -2.2109791677        0.5106332723
